5 0 0 1000
87 6 1.65794595 1.9268124 -1.0
0.4000           -0.1202028                   
0.4500           -0.3509282                   
0.5000           -0.5266270                   
0.5500           -0.6627707                   
0.6000           -0.7696341                   
0.6500           -0.8543614                   
0.7000           -0.9220261                   
0.7500           -0.9763357                   
0.8000           -1.0200556                   
0.9000           -1.0836422                   
1.0000           -1.1245385                   
1.1000           -1.1500562                   
1.2000           -1.1649342                   
1.3000           -1.1723459                   
1.3500           -1.1739627                   
1.3900           -1.1744517                   
1.4000           -1.1744744                   
1.4010           -1.1744746                   
1.4011           -1.1744746                   
1.4100           -1.1744599                   
1.4500           -1.1740558                   
1.5000           -1.1728537                   
1.6000           -1.1685799                   
1.7000           -1.1624570                   
1.8000           -1.1550670                   
1.9000           -1.1468496                   
2.0000           -1.1381312                   
2.1000           -1.1291562                   
2.2000           -1.1201233                   
2.3000           -1.1111725                   
2.4000           -1.1024127                   
2.5000           -1.0939273                   
2.6000           -1.0857810                   
2.7000           -1.0780164                   
2.8000           -1.0706700                   
2.9000           -1.0637641                   
3.0000           -1.0573118                   
3.1000           -1.0513185                   
3.2000           -1.0457832                   
3.3000           -1.0407003                   
3.4000           -1.0360578                   
3.5000           -1.0318402                   
3.6000           -1.0280272                   
3.7000           -1.0245978                   
3.8000           -1.0215297                   
3.9000           -1.0187967                   
4.0000           -1.0163689                   
4.1000           -1.0142247                   
4.2000           -1.0123371                   
4.3000           -1.0106810                   
4.4000           -1.0092303                   
4.5000           -1.0079682                   
4.6000           -1.0068703                   
4.7000           -1.0059178                   
4.8000           -1.0050923                   
4.9000           -1.0043782                   
5.0000           -1.0037626                   
5.1000           -1.0032309                   
5.2000           -1.0027740                   
5.3000           -1.0023800                   
5.4000           -1.0020423                   
5.5000           -1.0017521                   
5.6000           -1.0015030                   
5.7000           -1.0012899                   
5.8000           -1.0011069                   
5.9000           -1.0009498                   
6.0000           -1.0008150                   
6.1000           -1.0007002                   
6.2000           -1.0006030                   
6.3000           -1.0005162                   
6.4000           -1.0004466                   
6.5000           -1.0003864                   
6.6000           -1.0003328                   
6.7000           -1.0002906                   
6.8000           -1.0002466                   
6.9000           -1.0002154                   
7.0000           -1.0001889                   
7.2000           -1.0001434                   
7.4000           -1.0001086                   
7.6000           -1.0000868                   
7.8000           -1.0000682                   
8.0000           -1.0000528                   
8.2500           -1.0000404                   
8.5000           -1.0000314                   
9.0000           -1.0000185                   
9.5000           -1.0000121                   
10.000           -1.0000091                   
87 6 1.65794595 1.9268124 -1.0
0.4000           -0.1202028
0.4500           -0.3509282
0.5000           -0.5266270
0.5500           -0.6627707
0.6000           -0.7696341
0.6500           -0.8543614
0.7000           -0.9220261
0.7500           -0.9763357
0.8000           -1.0200556
0.9000           -1.0836422
1.0000           -1.1245385
1.1000           -1.1500562
1.2000           -1.1649342
1.3000           -1.1723459
1.3500           -1.1739627
1.3900           -1.1744517
1.4000           -1.1744744
1.4010           -1.1744746
1.4011           -1.1744746
1.4100           -1.1744599
1.4500           -1.1740558
1.5000           -1.1728537
1.6000           -1.1685799
1.7000           -1.1624570
1.8000           -1.1550670
1.9000           -1.1468496
2.0000           -1.1381312
2.1000           -1.1291562
2.2000           -1.1201233
2.3000           -1.1111725
2.4000           -1.1024127
2.5000           -1.0939273
2.6000           -1.0857810
2.7000           -1.0780164
2.8000           -1.0706700
2.9000           -1.0637641
3.0000           -1.0573118
3.1000           -1.0513185
3.2000           -1.0457832
3.3000           -1.0407003
3.4000           -1.0360578
3.5000           -1.0318402
3.6000           -1.0280272
3.7000           -1.0245978
3.8000           -1.0215297
3.9000           -1.0187967
4.0000           -1.0163689
4.1000           -1.0142247
4.2000           -1.0123371
4.3000           -1.0106810
4.4000           -1.0092303
4.5000           -1.0079682
4.6000           -1.0068703
4.7000           -1.0059178
4.8000           -1.0050923
4.9000           -1.0043782
5.0000           -1.0037626
5.1000           -1.0032309
5.2000           -1.0027740
5.3000           -1.0023800
5.4000           -1.0020423
5.5000           -1.0017521
5.6000           -1.0015030
5.7000           -1.0012899
5.8000           -1.0011069
5.9000           -1.0009498
6.0000           -1.0008150
6.1000           -1.0007002
6.2000           -1.0006030
6.3000           -1.0005162
6.4000           -1.0004466
6.5000           -1.0003864
6.6000           -1.0003328
6.7000           -1.0002906
6.8000           -1.0002466
6.9000           -1.0002154
7.0000           -1.0001889
7.2000           -1.0001434
7.4000           -1.0001086
7.6000           -1.0000868
7.8000           -1.0000682
8.0000           -1.0000528
8.2500           -1.0000404
8.5000           -1.0000314
9.0000           -1.0000185
9.5000           -1.0000121
10.000           -1.0000091
87 6 1.65794595 1.9268124 -1.0
0.4000           -0.1202028
0.4500           -0.3509282
0.5000           -0.5266270
0.5500           -0.6627707
0.6000           -0.7696341
0.6500           -0.8543614
0.7000           -0.9220261
0.7500           -0.9763357
0.8000           -1.0200556
0.9000           -1.0836422
1.0000           -1.1245385
1.1000           -1.1500562
1.2000           -1.1649342
1.3000           -1.1723459
1.3500           -1.1739627
1.3900           -1.1744517
1.4000           -1.1744744
1.4010           -1.1744746
1.4011           -1.1744746
1.4100           -1.1744599
1.4500           -1.1740558
1.5000           -1.1728537
1.6000           -1.1685799
1.7000           -1.1624570
1.8000           -1.1550670
1.9000           -1.1468496
2.0000           -1.1381312
2.1000           -1.1291562
2.2000           -1.1201233
2.3000           -1.1111725
2.4000           -1.1024127
2.5000           -1.0939273
2.6000           -1.0857810
2.7000           -1.0780164
2.8000           -1.0706700
2.9000           -1.0637641
3.0000           -1.0573118
3.1000           -1.0513185
3.2000           -1.0457832
3.3000           -1.0407003
3.4000           -1.0360578
3.5000           -1.0318402
3.6000           -1.0280272
3.7000           -1.0245978
3.8000           -1.0215297
3.9000           -1.0187967
4.0000           -1.0163689
4.1000           -1.0142247
4.2000           -1.0123371
4.3000           -1.0106810
4.4000           -1.0092303
4.5000           -1.0079682
4.6000           -1.0068703
4.7000           -1.0059178
4.8000           -1.0050923
4.9000           -1.0043782
5.0000           -1.0037626
5.1000           -1.0032309
5.2000           -1.0027740
5.3000           -1.0023800
5.4000           -1.0020423
5.5000           -1.0017521
5.6000           -1.0015030
5.7000           -1.0012899
5.8000           -1.0011069
5.9000           -1.0009498
6.0000           -1.0008150
6.1000           -1.0007002
6.2000           -1.0006030
6.3000           -1.0005162
6.4000           -1.0004466
6.5000           -1.0003864
6.6000           -1.0003328
6.7000           -1.0002906
6.8000           -1.0002466
6.9000           -1.0002154
7.0000           -1.0001889
7.2000           -1.0001434
7.4000           -1.0001086
7.6000           -1.0000868
7.8000           -1.0000682
8.0000           -1.0000528
8.2500           -1.0000404
8.5000           -1.0000314
9.0000           -1.0000185
9.5000           -1.0000121
10.000           -1.0000091
87 6 1.65794595 1.9268124 -1.0
0.4000           -0.1202028
0.4500           -0.3509282
0.5000           -0.5266270
0.5500           -0.6627707
0.6000           -0.7696341
0.6500           -0.8543614
0.7000           -0.9220261
0.7500           -0.9763357
0.8000           -1.0200556
0.9000           -1.0836422
1.0000           -1.1245385
1.1000           -1.1500562
1.2000           -1.1649342
1.3000           -1.1723459
1.3500           -1.1739627
1.3900           -1.1744517
1.4000           -1.1744744
1.4010           -1.1744746
1.4011           -1.1744746
1.4100           -1.1744599
1.4500           -1.1740558
1.5000           -1.1728537
1.6000           -1.1685799
1.7000           -1.1624570
1.8000           -1.1550670
1.9000           -1.1468496
2.0000           -1.1381312
2.1000           -1.1291562
2.2000           -1.1201233
2.3000           -1.1111725
2.4000           -1.1024127
2.5000           -1.0939273
2.6000           -1.0857810
2.7000           -1.0780164
2.8000           -1.0706700
2.9000           -1.0637641
3.0000           -1.0573118
3.1000           -1.0513185
3.2000           -1.0457832
3.3000           -1.0407003
3.4000           -1.0360578
3.5000           -1.0318402
3.6000           -1.0280272
3.7000           -1.0245978
3.8000           -1.0215297
3.9000           -1.0187967
4.0000           -1.0163689
4.1000           -1.0142247
4.2000           -1.0123371
4.3000           -1.0106810
4.4000           -1.0092303
4.5000           -1.0079682
4.6000           -1.0068703
4.7000           -1.0059178
4.8000           -1.0050923
4.9000           -1.0043782
5.0000           -1.0037626
5.1000           -1.0032309
5.2000           -1.0027740
5.3000           -1.0023800
5.4000           -1.0020423
5.5000           -1.0017521
5.6000           -1.0015030
5.7000           -1.0012899
5.8000           -1.0011069
5.9000           -1.0009498
6.0000           -1.0008150
6.1000           -1.0007002
6.2000           -1.0006030
6.3000           -1.0005162
6.4000           -1.0004466
6.5000           -1.0003864
6.6000           -1.0003328
6.7000           -1.0002906
6.8000           -1.0002466
6.9000           -1.0002154
7.0000           -1.0001889
7.2000           -1.0001434
7.4000           -1.0001086
7.6000           -1.0000868
7.8000           -1.0000682
8.0000           -1.0000528
8.2500           -1.0000404
8.5000           -1.0000314
9.0000           -1.0000185
9.5000           -1.0000121
10.000           -1.0000091
87 6 1.65794595 1.9268124 -1.0
0.4000           -0.1202028
0.4500           -0.3509282
0.5000           -0.5266270
0.5500           -0.6627707
0.6000           -0.7696341
0.6500           -0.8543614
0.7000           -0.9220261
0.7500           -0.9763357
0.8000           -1.0200556
0.9000           -1.0836422
1.0000           -1.1245385
1.1000           -1.1500562
1.2000           -1.1649342
1.3000           -1.1723459
1.3500           -1.1739627
1.3900           -1.1744517
1.4000           -1.1744744
1.4010           -1.1744746
1.4011           -1.1744746
1.4100           -1.1744599
1.4500           -1.1740558
1.5000           -1.1728537
1.6000           -1.1685799
1.7000           -1.1624570
1.8000           -1.1550670
1.9000           -1.1468496
2.0000           -1.1381312
2.1000           -1.1291562
2.2000           -1.1201233
2.3000           -1.1111725
2.4000           -1.1024127
2.5000           -1.0939273
2.6000           -1.0857810
2.7000           -1.0780164
2.8000           -1.0706700
2.9000           -1.0637641
3.0000           -1.0573118
3.1000           -1.0513185
3.2000           -1.0457832
3.3000           -1.0407003
3.4000           -1.0360578
3.5000           -1.0318402
3.6000           -1.0280272
3.7000           -1.0245978
3.8000           -1.0215297
3.9000           -1.0187967
4.0000           -1.0163689
4.1000           -1.0142247
4.2000           -1.0123371
4.3000           -1.0106810
4.4000           -1.0092303
4.5000           -1.0079682
4.6000           -1.0068703
4.7000           -1.0059178
4.8000           -1.0050923
4.9000           -1.0043782
5.0000           -1.0037626
5.1000           -1.0032309
5.2000           -1.0027740
5.3000           -1.0023800
5.4000           -1.0020423
5.5000           -1.0017521
5.6000           -1.0015030
5.7000           -1.0012899
5.8000           -1.0011069
5.9000           -1.0009498
6.0000           -1.0008150
6.1000           -1.0007002
6.2000           -1.0006030
6.3000           -1.0005162
6.4000           -1.0004466
6.5000           -1.0003864
6.6000           -1.0003328
6.7000           -1.0002906
6.8000           -1.0002466
6.9000           -1.0002154
7.0000           -1.0001889
7.2000           -1.0001434
7.4000           -1.0001086
7.6000           -1.0000868
7.8000           -1.0000682
8.0000           -1.0000528
8.2500           -1.0000404
8.5000           -1.0000314
9.0000           -1.0000185
9.5000           -1.0000121
10.000           -1.0000091
87 6 1.65794595 1.9268124 -1.0
0.4000           -0.1202028
0.4500           -0.3509282
0.5000           -0.5266270
0.5500           -0.6627707
0.6000           -0.7696341
0.6500           -0.8543614
0.7000           -0.9220261
0.7500           -0.9763357
0.8000           -1.0200556
0.9000           -1.0836422
1.0000           -1.1245385
1.1000           -1.1500562
1.2000           -1.1649342
1.3000           -1.1723459
1.3500           -1.1739627
1.3900           -1.1744517
1.4000           -1.1744744
1.4010           -1.1744746
1.4011           -1.1744746
1.4100           -1.1744599
1.4500           -1.1740558
1.5000           -1.1728537
1.6000           -1.1685799
1.7000           -1.1624570
1.8000           -1.1550670
1.9000           -1.1468496
2.0000           -1.1381312
2.1000           -1.1291562
2.2000           -1.1201233
2.3000           -1.1111725
2.4000           -1.1024127
2.5000           -1.0939273
2.6000           -1.0857810
2.7000           -1.0780164
2.8000           -1.0706700
2.9000           -1.0637641
3.0000           -1.0573118
3.1000           -1.0513185
3.2000           -1.0457832
3.3000           -1.0407003
3.4000           -1.0360578
3.5000           -1.0318402
3.6000           -1.0280272
3.7000           -1.0245978
3.8000           -1.0215297
3.9000           -1.0187967
4.0000           -1.0163689
4.1000           -1.0142247
4.2000           -1.0123371
4.3000           -1.0106810
4.4000           -1.0092303
4.5000           -1.0079682
4.6000           -1.0068703
4.7000           -1.0059178
4.8000           -1.0050923
4.9000           -1.0043782
5.0000           -1.0037626
5.1000           -1.0032309
5.2000           -1.0027740
5.3000           -1.0023800
5.4000           -1.0020423
5.5000           -1.0017521
5.6000           -1.0015030
5.7000           -1.0012899
5.8000           -1.0011069
5.9000           -1.0009498
6.0000           -1.0008150
6.1000           -1.0007002
6.2000           -1.0006030
6.3000           -1.0005162
6.4000           -1.0004466
6.5000           -1.0003864
6.6000           -1.0003328
6.7000           -1.0002906
6.8000           -1.0002466
6.9000           -1.0002154
7.0000           -1.0001889
7.2000           -1.0001434
7.4000           -1.0001086
7.6000           -1.0000868
7.8000           -1.0000682
8.0000           -1.0000528
8.2500           -1.0000404
8.5000           -1.0000314
9.0000           -1.0000185
9.5000           -1.0000121
10.000           -1.0000091
772 5  0.156189 1.5000 1.247447  0.d0
   1.73700   1.77700   3.51400  -.159305      
   1.75700   1.75700   3.50961  -.159212      
   1.09000   2.84500   3.93500  -.139682      
   1.09000   2.88390   3.90658  -.139747      
   1.09000   2.99308   3.82358  -.139878      
   1.09000   3.15303   3.69279  -.140025      
   1.09000   3.33878   3.52573  -.140108      
   1.40000   2.69000   4.09000  -.167118      
   1.40000   2.74268   4.05486  -.167023      
   1.40000   2.88902   3.95193  -.166786      
   1.40000   3.09985   3.78881  -.166582      
   1.40000   3.34035   3.57858  -.166503      
   2.04000   2.37000   4.41000  -.141022      
   2.04000   2.45641   4.36246  -.138488      
   2.04000   2.68977   4.22258  -.133142      
   2.04000   3.01242   3.99879  -.128932      
   1.10000   2.64568   3.63307  -.137682      
   2.06000   2.24783   4.08202  -.140628      
    .95000   2.55000   3.50000  -.091592      
   1.00000   2.55000   3.55000  -.110332      
   1.02500   2.55000   3.57500  -.118224      
   1.05000   2.55000   3.60000  -.125275      
   1.10000   2.55000   3.65000  -.137070      
   1.15000   2.55000   3.70000  -.146259      
   1.21000   2.55000   3.76000  -.154428      
   1.36000   2.55000   3.91000  -.164720      
   1.51000   2.55000   4.06000  -.165712      
   1.66000   2.55000   4.21000  -.160533      
   1.81000   2.55000   4.36000  -.152582      
   1.96000   2.55000   4.51000  -.143195      
   2.11000   2.55000   4.66000  -.133484      
   2.26000   2.55000   4.81000  -.124199      
   2.46000   2.55000   5.01000  -.113379      
   1.10000   1.10000   2.20000  -.013786      
   1.30000   1.30000   2.60000  -.104420      
   1.50000   1.50000   3.00000  -.145412      
   1.60000   1.60000   3.20000  -.154609      
   1.70000   1.70000   3.40000  -.158719      
   1.75000   1.75000   3.50000  -.159276      
   1.80000   1.80000   3.60000  -.159012      
   1.90000   1.90000   3.80000  -.156457      
   2.10000   2.10000   4.20000  -.145622      
   2.30000   2.30000   4.60000  -.130437      
   2.50000   2.50000   5.00000  -.113496      
   2.70000   2.70000   5.40000  -.096405      
   3.00000   3.00000   6.00000  -.072582      
   4.00000   4.00000   8.00000  -.021478      
   5.00000   5.00000  10.00000  -.004985      
   1.29000   1.64000   2.93000  -.135746      
   1.42000   1.72000   3.14000  -.150838      
   1.55000   1.80000   3.35000  -.157948      
   1.68000   1.88000   3.56000  -.159552      
   1.81000   1.96000   3.77000  -.157358      
   1.94000   2.04000   3.98000  -.152560      
   1.22000   1.74000   2.96000  -.131914      
   1.36000   1.81000   3.17000  -.150039      
   1.50000   1.88000   3.38000  -.158235      
   1.64000   1.95000   3.59000  -.159948      
   2.06000   2.16000   4.22000  -.145199      
   1.88000   2.02000   3.90000  -.154742      
   1.19000   1.87000   3.06000  -.133442      
   1.33000   1.92000   3.25000  -.151274      
   1.47000   1.97000   3.44000  -.159048      
   1.61000   2.02000   3.63000  -.160438      
   1.75000   2.07000   3.82000  -.157802      
   2.03000   2.17000   4.20000  -.146124      
   1.16000   1.99000   3.15000  -.133216      
   1.30000   2.03000   3.33000  -.151965      
   1.44000   2.07000   3.51000  -.159939      
   1.58000   2.11000   3.69000  -.161173      
   1.72000   2.15000   3.87000  -.158235      
   2.00000   2.23000   4.23000  -.145951      
   1.11000   2.11000   3.22000  -.127765      
   1.26000   2.14000   3.40000  -.151200      
   1.41000   2.17000   3.58000  -.160727      
   1.56000   2.20000   3.76000  -.161954      
   1.71000   2.23000   3.94000  -.158300      
   2.01000   2.29000   4.30000  -.144172      
   1.09000   2.24000   3.33000  -.127400      
   1.24000   2.26000   3.50000  -.151997      
   1.39000   2.28000   3.67000  -.161832      
   1.54000   2.30000   3.84000  -.162916      
   1.69000   2.32000   4.01000  -.158896      
   1.99000   2.36000   4.35000  -.143874      
   2.29000   2.40000   4.69000  -.127072      
   1.07000   2.41000   3.48000  -.127130      
   1.22000   2.41000   3.63000  -.152937      
   1.37000   2.41000   3.78000  -.163088      
   1.52000   2.41000   3.93000  -.164047      
   1.67000   2.41000   4.08000  -.159723      
   1.97000   2.41000   4.38000  -.144199      
   2.27000   2.41000   4.68000  -.127713      
   1.06000   2.55000   3.61000  -.127696      
   1.21000   2.55000   3.76000  -.154293      
   1.36000   2.55000   3.91000  -.164606      
   1.51000   2.55000   4.06000  -.165314      
   1.66000   2.55000   4.21000  -.160441      
   1.96000   2.55000   4.51000  -.143134      
   2.26000   2.55000   4.81000  -.124146      
   1.04000   2.69000   3.73000  -.124996      
   1.19000   2.69000   3.88000  -.154054      
   1.34000   2.69000   4.03000  -.165582      
   1.49000   2.69000   4.18000  -.166747      
   1.64000   2.69000   4.33000  -.161829      
   1.94000   2.69000   4.63000  -.143436      
   2.24000   2.69000   4.93000  -.122390      
   1.03000   2.84000   3.87000  -.124510      
   1.18000   2.84000   4.02000  -.154740      
   1.33000   2.84000   4.17000  -.166773      
   1.48000   2.84000   4.32000  -.168032      
   1.63000   2.84000   4.47000  -.162927      
   1.93000   2.84000   4.77000  -.143565      
   2.23000   2.84000   5.07000  -.120881      
   2.53000   2.84000   5.37000  -.100526      
   1.02000   2.98000   4.00000  -.123379      
   1.17000   2.98000   4.15000  -.154948      
   1.32000   2.98000   4.30000  -.167639      
   1.47000   2.98000   4.45000  -.169145      
   1.62000   2.98000   4.60000  -.164022      
   1.92000   2.98000   4.90000  -.144093      
   2.22000   2.98000   5.20000  -.120291      
   2.52000   2.98000   5.50000  -.098268      
   1.01000   3.19000   4.20000  -.122457      
   1.16000   3.19000   4.35000  -.155402      
   1.31000   3.19000   4.50000  -.168769      
   1.46000   3.19000   4.65000  -.170528      
   1.61000   3.19000   4.80000  -.165384      
   1.91000   3.19000   5.10000  -.144882      
   2.21000   3.19000   5.40000  -.119954      
   2.51000   3.19000   5.70000  -.096218      
   1.00000   3.41000   4.41000  -.120917      
   1.15000   3.41000   4.56000  -.155387      
   1.30000   3.41000   4.71000  -.169558      
   1.45000   3.41000   4.86000  -.171695      
   1.60000   3.41000   5.01000  -.166664      
   1.90000   3.41000   5.31000  -.145905      
   2.20000   3.41000   5.61000  -.120287      
   2.50000   3.41000   5.91000  -.095451      
    .99000   3.64000   4.63000  -.118817      
   1.14000   3.64000   4.78000  -.154938      
   1.29000   3.64000   4.93000  -.170017      
   1.44000   3.64000   5.08000  -.172630      
   1.59000   3.64000   5.23000  -.167810      
   1.89000   3.64000   5.53000  -.147015      
   2.19000   3.64000   5.83000  -.120999      
   2.49000   3.64000   6.13000  -.095490      
    .98000   3.87000   4.85000  -.116194      
   1.13000   3.87000   5.00000  -.154078      
   1.28000   3.87000   5.15000  -.170151      
   1.43000   3.87000   5.30000  -.173317      
   1.58000   3.87000   5.45000  -.168783      
   1.88000   3.87000   5.75000  -.148109      
   2.18000   3.87000   6.05000  -.121891      
   2.48000   3.87000   6.35000  -.095985      
    .97000   4.15000   5.12000  -.113237      
   1.12000   4.15000   5.27000  -.152974      
   1.27000   4.15000   5.42000  -.170104      
   1.42000   4.15000   5.57000  -.173872      
   1.57000   4.15000   5.72000  -.169663      
   1.87000   4.15000   6.02000  -.149190      
   2.17000   4.15000   6.32000  -.122863      
   2.47000   4.15000   6.62000  -.096685      
    .96000   4.33000   5.29000  -.109726      
   1.11000   4.33000   5.44000  -.151425      
   1.26000   4.33000   5.59000  -.169690      
   1.41000   4.33000   5.74000  -.174122      
   1.56000   4.33000   5.89000  -.170298      
   1.86000   4.33000   6.19000  -.150135      
   2.16000   4.33000   6.49000  -.123815      
   2.46000   4.33000   6.79000  -.097503      
   1.65000   1.65000   3.30000  -.157224      
   1.75700   1.75700   3.51400  -.159293      
   1.85000   1.85000   3.70000  -.158036      
   1.41400   3.17110   4.58510  -.170846      
   1.41000   3.37110   4.78110  -.171873      
   1.40700   3.57110   4.97810  -.172666      
   1.03000   1.48000   2.51000  -.064867      
   1.16000   1.56000   2.72000  -.108979      
   1.05000   1.82000   2.87000  -.099654      
    .91000   1.77000   2.68000  -.039771      
    .96000   2.08000   3.04000  -.080883      
    .92000   2.41000   3.33000  -.074579      
    .89000   2.69000   3.58000  -.065961      
    .87000   2.98000   3.85000  -.059446      
    .85000   3.41000   4.26000  -.051486      
    .83000   3.87000   4.70000  -.040494      
    .81000   4.33000   5.14000  -.027106      
   1.75700   1.75700   3.51186  -.159253      
   1.75700   1.75700   3.50544  -.159143      
   1.17000   1.17000   2.26027  -.049173      
   1.37000   1.37000   2.64664  -.119504      
   1.57000   1.57000   3.03301  -.149633      
   1.67000   1.67000   3.22619  -.155424      
   1.77000   1.77000   3.41938  -.157032      
   1.87000   1.87000   3.61256  -.155504      
   1.97000   1.97000   3.80575  -.151643      
   2.17000   2.17000   4.19212  -.139315      
   2.47000   2.47000   4.77167  -.115221      
   2.67000   2.67000   5.15804  -.098296      
   1.00000   1.40000   2.32053  -.039378      
   1.10000   1.56000   2.57212  -.091506      
   1.24500   1.65000   2.79832  -.127472      
   1.38000   1.74000   3.01513  -.146280      
   1.51500   1.83000   3.23205  -.155301      
   1.65000   1.92000   3.44906  -.157676      
   1.78500   2.01000   3.66615  -.155531      
   1.92000   2.10000   3.88330  -.150353      
    .97000   2.01000   2.89102  -.079780      
   1.25000   2.09000   3.23351  -.147017      
   1.39000   2.13000   3.40545  -.157608      
   1.53000   2.17000   3.57776  -.160280      
   1.67000   2.21000   3.75040  -.158029      
   1.81000   2.25000   3.92331  -.152778      
   2.09000   2.33000   4.26984  -.137986      
    .90000   2.64000   3.44891  -.069295      
   1.08000   2.66000   3.63563  -.133720      
   1.26000   2.68000   3.82345  -.160088      
   1.44000   2.70000   4.01221  -.166415      
   1.62000   2.72000   4.20177  -.161993      
   1.80000   2.74000   4.39205  -.151990      
   2.16000   2.78000   4.77437  -.125978      
   2.52000   2.82000   5.15863  -.101009      
    .90000   3.40000   4.20358  -.079548      
   1.10000   3.40000   4.38724  -.146421      
   1.25000   3.40000   4.52589  -.166159      
   1.40000   3.40000   4.66525  -.171619      
   1.55000   3.40000   4.80525  -.168568      
   1.80000   3.40000   5.03986  -.153421      
   2.00000   3.40000   5.22857  -.137180      
   3.00000   3.40000   6.18279  -.062339      
   1.20000   1.20000   2.07846  -.049667      
   1.40000   1.40000   2.42487  -.113943      
   1.60000   1.60000   2.77128  -.141703      
   1.70000   1.70000   2.94449  -.147084      
   1.80000   1.80000   3.11769  -.148591      
   1.90000   1.90000   3.29090  -.147180      
   2.00000   2.00000   3.46410  -.143591      
   2.20000   2.20000   3.81051  -.132028      
   2.50000   2.50000   4.33013  -.109307      
   1.00000   1.40000   2.08806  -.027042      
   1.14220   1.66000   2.44055  -.099575      
   1.27580   1.74000   2.62205  -.126782      
   1.40940   1.82000   2.80427  -.141813      
   1.54300   1.90000   2.98706  -.148679      
   1.60980   1.94000   3.07865  -.149907      
   1.67660   1.98000   3.17034  -.150006      
   1.74340   2.02000   3.26213  -.149174      
   1.94380   2.14000   3.53803  -.142633      
   1.03200   1.88000   2.55726  -.087035      
   1.16400   1.94000   2.71600  -.121895      
   1.29600   2.00000   2.87604  -.141152      
   1.42800   2.06000   3.03718  -.150316      
   1.56000   2.12000   3.19925  -.152866      
   1.69200   2.18000   3.36212  -.151076      
   1.82400   2.24000   3.52567  -.146473      
   2.08800   2.36000   3.85448  -.132629      
    .91000   2.14000   2.71203  -.052932      
   1.07000   2.18000   2.86878  -.113299      
   1.23000   2.22000   3.02851  -.142596      
   1.39000   2.26000   3.19078  -.154258      
   1.55000   2.30000   3.35522  -.155760      
   1.71000   2.34000   3.52152  -.151429      
   1.87000   2.38000   3.68943  -.143913      
   2.19000   2.46000   4.02928  -.125299      
    .91000   2.74000   3.29076  -.073671      
   1.09000   2.76000   3.43716  -.134769      
   1.27000   2.78000   3.58774  -.159222      
   1.45000   2.80000   3.74199  -.164342      
   1.63000   2.82000   3.89947  -.159128      
   1.81000   2.84000   4.05982  -.148530      
   2.17000   2.88000   4.38781  -.121667      
   2.53000   2.92000   4.72386  -.095931      
    .90000   3.40000   3.92810  -.078461      
   1.10000   3.40000   4.06325  -.145207      
   1.25000   3.40000   4.16803  -.164886      
   1.40000   3.40000   4.27551  -.170295      
   1.55000   3.40000   4.38549  -.167202      
   1.80000   3.40000   4.57384  -.152020      
   2.00000   3.40000   4.72864  -.135784      
   3.00000   3.40000   5.54617  -.061322      
   1.50000   1.50000   2.12132  -.104424      
   1.70000   1.70000   2.40416  -.123574      
   1.80000   1.80000   2.54558  -.126821      
   1.90000   1.90000   2.68701  -.127150      
   2.00000   2.00000   2.82843  -.125261      
   2.10000   2.10000   2.96985  -.121720      
   2.30000   2.30000   3.25269  -.111291      
   2.50000   2.50000   3.53553  -.098407      
   1.20000   1.40000   1.84391  -.056318      
   1.58000   1.78000   2.38008  -.123573      
   1.72000   1.92000   2.57775  -.128528      
   1.79000   1.99000   2.67660  -.128764      
   1.86000   2.06000   2.77546  -.127859      
   2.00000   2.20000   2.97321  -.123395      
   2.14000   2.34000   3.17099  -.116454      
   1.11000   1.78000   2.09774  -.082093      
   1.45000   2.02000   2.48654  -.132193      
   1.62000   2.14000   2.68403  -.135991      
   1.79000   2.26000   2.88300  -.132853      
   2.13000   2.50000   3.28434  -.115982      
   1.46000   2.48000   2.87785  -.149523      
   1.85400   2.54800   3.15113  -.133923      
   2.44500   2.65000   3.60562  -.096869      
    .90000   3.44000   3.55578  -.076332      
   1.10000   3.44000   3.61159  -.143198      
   1.25000   3.44000   3.66007  -.162183      
   1.40000   3.44000   3.71397  -.167815      
   1.55000   3.44000   3.77308  -.164105      
   1.80000   3.44000   3.88247  -.149011      
   2.00000   3.44000   3.97915  -.132539      
   3.00000   3.44000   4.56438  -.057237      
   2.30000   2.62500   3.49008  -.105250      
   1.00000   2.40100   2.60092  -.092510      
    .90000    .90000    .90000   .342584      
   1.25000   1.25000   1.25000   .032571      
   1.60000   1.60000   1.60000  -.056313      
   1.90000   1.90000   1.90000  -.074010      
   2.00000   2.00000   2.00000  -.074501      
   2.10000   2.10000   2.10000  -.073400      
   2.50000   2.50000   2.50000  -.060287      
    .60000    .80000   1.40000   .593580      
    .60000   1.75000   2.35000   .294257      
    .60000   2.10000   2.70000   .268052      
    .60000   3.40000   4.00000   .234879      
    .60000    .80000   1.31402   .602586      
    .60000   1.00000   1.51574   .467071      
    .60000   1.40000   1.91743   .345679      
    .60000   1.75000   2.26814   .297368      
    .60000   2.10000   2.61855   .270010      
    .60000   2.60000   3.11889   .248760      
    .60000   3.40000   3.91918   .235163      
    .60000    .80000   1.08811   .639758      
    .60000   1.00000   1.29205   .491017      
    .60000   1.40000   1.69570   .360147      
    .60000   1.75000   2.04716   .306758      
    .60000   2.10000   2.39798   .276133      
    .60000   2.60000   2.89865   .251943      
    .60000   3.40000   3.69919   .236195      
    .60000    .80000    .80000   .761954      
    .60000   1.40000   1.40000   .388481      
    .60000   1.75000   1.75000   .323524      
    .60000   2.10000   2.10000   .286566      
    .60000   2.60000   2.60000   .257232      
    .60000   3.40000   3.40000   .237882      
    .80000   1.00000   1.80000   .189865      
    .80000   1.20000   2.00000   .118973      
    .80000   1.90000   2.70000   .024175      
    .80000   2.10000   2.90000   .012779      
    .80000   2.35000   3.15000   .002466      
    .80000    .80000   1.58631   .321999      
    .80000   1.00000   1.78479   .190905      
    .80000   1.40000   2.18258   .077735      
    .80000   1.75000   2.53122   .035983      
    .80000   2.10000   2.88019   .013161      
    .80000   2.60000   3.37909  -.004505      
    .80000    .80000   1.54548   .325350      
    .80000   1.00000   1.73944   .194089      
    .80000   1.20000   1.93462   .122954      
    .80000   1.40000   2.13070   .080353      
    .80000   1.60000   2.32745   .052759      
    .80000   1.75000   2.47535   .037837      
    .80000   1.90000   2.62349   .026293      
    .80000   2.10000   2.82132   .014470      
    .80000   2.35000   3.06900   .003768      
    .80000   3.00000   3.71442  -.011567      
    .80000   4.00000   4.70984  -.018729      
    .80000    .80000   1.47821   .331266      
    .80000   1.00000   1.66474   .199722      
    .80000   1.40000   2.04546   .084905      
    .80000   1.75000   2.38378   .041053      
    .80000   2.10000   2.72505   .016675      
    .80000   2.60000   3.21583  -.002631      
    .80000    .80000   1.38564   .340628      
    .80000   1.00000   1.56205   .208351      
    .80000   1.20000   1.74356   .135900      
    .80000   1.40000   1.92873   .091720      
    .80000   1.60000   2.11660   .062287      
    .80000   1.75000   2.25887   .046087      
    .80000   1.90000   2.40208   .033171      
    .80000   2.35000   2.83593   .007936      
    .80000   3.00000   3.46987  -.009740      
    .80000   4.00000   4.45421  -.018296      
    .80000    .80000   1.26937   .355725      
    .80000   1.00000   1.43322   .221312      
    .80000   1.40000   1.78319   .101354      
    .80000   1.75000   2.10409   .052948      
    .80000   2.10000   2.43303   .024677      
    .80000   2.60000   2.91148   .001736      
    .80000    .80000   1.13137   .382257      
    .80000   1.00000   1.28062   .242008      
    .80000   1.20000   1.44222   .163863      
    .80000   1.40000   1.61245   .114910      
    .80000   1.75000   1.92419   .062254      
    .80000   2.10000   2.24722   .030807      
    .80000   2.60000   2.72029   .005016      
    .80000   3.00000   3.10483  -.006274      
    .80000   4.00000   4.07922  -.017518      
    .80000    .80000    .97980   .428852      
    .80000   1.00000   1.14891   .267898      
    .80000   1.00000   1.00000   .312428      
    .80000   1.20000   1.20000   .200922      
    .80000   1.75000   1.75000   .072916      
    .80000   1.90000   1.90000   .054989      
    .80000   2.10000   2.10000   .036327      
    .80000   2.35000   2.35000   .019414      
    .80000   2.60000   2.60000   .007366      
    .80000   3.00000   3.00000  -.005118      
    .80000   4.00000   4.00000  -.017338      
   1.00000   1.00000   2.00000   .062010      
   1.00000   1.20000   2.20000  -.004930      
   1.00000   1.00000   1.98289   .063089      
   1.00000   1.20000   2.18133  -.003866      
   1.00000   1.40000   2.38004  -.041974      
   1.00000   1.60000   2.57895  -.065560      
   1.00000   1.75000   2.72823  -.077744      
   1.00000   1.90000   2.87759  -.087079      
   1.00000   2.10000   3.07683  -.096439      
   1.00000   2.35000   3.32601  -.105015      
   1.00000   2.60000   3.57531  -.111072      
   1.00000   1.00000   1.93185   .066366      
   1.00000   1.20000   2.12567  -.000721      
   1.00000   1.75000   2.66338  -.075740      
   1.00000   2.35000   3.25466  -.103987      
   1.00000   3.00000   3.89822  -.116961      
   1.00000   4.00000   4.89165  -.123368      
   1.00000   1.00000   1.84776   .072104      
   1.00000   1.20000   2.03398   .004748      
   1.00000   1.40000   2.22259  -.034342      
   1.00000   1.60000   2.41304  -.059028      
   1.00000   1.75000   2.55683  -.072121      
   1.00000   1.90000   2.70130  -.082255      
   1.00000   2.10000   2.89480  -.092557      
   1.00000   2.35000   3.13782  -.102163      
   1.00000   2.60000   3.38186  -.108998      
   1.00000   1.00000   1.73205   .080830      
   1.00000   1.20000   1.90788   .013030      
   1.00000   1.60000   2.27156  -.052705      
   1.00000   2.35000   2.97867  -.099335      
   1.00000   3.00000   3.60555  -.115029      
   1.00000   4.00000   4.58258  -.122981      
   1.00000   1.00000   1.58671   .093710      
   1.00000   1.20000   1.74962   .025168      
   1.00000   1.40000   1.91956  -.016107      
   1.00000   1.60000   2.09481  -.043556      
   1.00000   1.75000   2.22898  -.058777      
   1.00000   1.90000   2.36506  -.070932      
   1.00000   2.10000   2.54893  -.083590      
   1.00000   2.35000   2.78190  -.095419      
   1.00000   2.60000   3.01759  -.104054      
   1.00000   1.00000   1.41421   .113419      
   1.00000   1.20000   1.56205   .042992      
   1.00000   1.40000   1.72047  -.000850      
   1.00000   1.60000   1.88680  -.030885      
   1.00000   1.90000   2.14709  -.061796      
   1.00000   2.10000   2.32594  -.076440      
   1.00000   3.00000   3.16228  -.111028      
   1.00000   4.00000   4.12311  -.121997      
   1.00000   1.00000   1.22475   .145193      
   1.00000   1.20000   1.39284   .063941      
   1.00000   1.40000   1.56844   .013239      
   1.00000   1.00000   1.00000   .212316      
   1.00000   1.20000   1.20000   .097433      
   1.00000   1.40000   1.40000   .032223      
   1.00000   1.60000   1.60000  -.009441      
   1.00000   1.75000   1.75000  -.031991      
   1.00000   1.90000   1.90000  -.049759      
   1.00000   2.10000   2.10000  -.068121      
   1.00000   2.35000   2.35000  -.084791      
   1.00000   2.60000   2.60000  -.096671      
   1.00000   3.00000   3.00000  -.109209      
   1.00000   3.40000   3.40000  -.116407      
   1.00000   4.00000   4.00000  -.121655      
   1.20000   1.40000   2.60000  -.100626      
   1.20000   1.20000   2.37947  -.066185      
   1.20000   1.40000   2.57789  -.099732      
   1.20000   1.60000   2.77654  -.119075      
   1.20000   1.75000   2.92564  -.128549      
   1.20000   1.90000   3.07484  -.135622      
   1.20000   2.10000   3.27388  -.142631      
   1.20000   2.35000   3.52283  -.149056      
   1.20000   2.60000   3.77192  -.153770      
   1.20000   1.40000   2.51194  -.096988      
   1.20000   1.20000   2.21731  -.057825      
   1.20000   1.40000   2.40331  -.092050      
   1.20000   1.60000   2.59139  -.112432      
   1.20000   1.75000   2.73356  -.122751      
   1.20000   1.90000   2.87653  -.130559      
   1.20000   2.10000   3.06819  -.138562      
   1.20000   2.35000   3.30917  -.146039      
   1.20000   2.60000   3.55139  -.151552      
   1.20000   1.40000   2.25389  -.084385      
   1.20000   1.20000   1.90405  -.037233      
   1.20000   1.40000   2.06631  -.072871      
   1.20000   1.60000   2.23470  -.095736      
   1.20000   1.75000   2.36422  -.108188      
   1.20000   1.90000   2.49604  -.118150      
   1.20000   2.10000   2.67478  -.128661      
   1.20000   2.35000   2.90211  -.138708      
   1.20000   2.60000   3.13290  -.146190      
   1.20000   2.10000   2.41868  -.120461      
   1.20000   2.60000   2.86356  -.141803      
   1.20000   1.20000   1.46969   .007390      
   1.20000   1.40000   1.63707  -.036786      
   1.20000   1.60000   1.81108  -.067743      
   1.20000   1.75000   1.94487  -.085448      
   1.20000   1.40000   1.40000  -.008933      
   1.20000   1.60000   1.60000  -.050657      
   1.20000   1.75000   1.75000  -.073045      
   1.20000   1.90000   1.90000  -.090574      
   1.20000   2.10000   2.10000  -.108642      
   1.20000   2.35000   2.35000  -.125090      
   1.20000   2.60000   2.60000  -.136841      
   1.40000   1.40000   2.77605  -.128521      
   1.40000   1.60000   2.97445  -.143372      
   1.40000   1.75000   3.12339  -.149947      
   1.40000   1.90000   3.27242  -.154481      
   1.40000   2.10000   3.47126  -.158764      
   1.40000   2.35000   3.71999  -.162760      
   1.40000   2.60000   3.96887  -.165962      
   1.40000   1.60000   2.89824  -.141091      
   1.40000   3.00000   4.27020  -.169178      
   1.40000   4.00000   5.25923  -.173644      
   1.40000   1.40000   2.58686  -.121259      
   1.40000   1.60000   2.77270  -.136955      
   1.40000   1.75000   2.91330  -.144172      
   1.40000   1.90000   3.05480  -.149401      
   1.40000   2.10000   3.24466  -.154644      
   1.40000   2.35000   3.48357  -.159654      
   1.40000   2.60000   3.72394  -.163650      
   1.40000   1.60000   2.60000  -.130235      
   1.40000   4.00000   4.85387  -.173101      
   1.40000   1.40000   2.22139  -.102539      
   1.40000   1.60000   2.38317  -.119914      
   1.40000   1.75000   2.50813  -.129043      
   1.40000   1.90000   2.63570  -.136221      
   1.40000   2.10000   2.80924  -.144029      
   1.40000   2.35000   3.03076  -.151756      
   1.40000   2.60000   3.25641  -.157793      
   1.40000   1.40000   1.97990  -.085662      
   1.40000   1.60000   2.12603  -.104447      
   1.40000   1.75000   2.24109  -.115333      
   1.40000   3.00000   3.31059  -.161879      
   1.40000   4.00000   4.23792  -.171940      
   1.40000   1.40000   1.71464  -.061318      
   1.40000   1.60000   1.88149  -.085935      
   1.40000   1.75000   2.01060  -.100977      
   1.40000   1.90000   2.14243  -.113552      
   1.40000   2.10000   2.32164  -.127169      
   1.40000   1.75000   1.75000  -.083384      
   1.40000   3.40000   3.40000  -.165706      
   1.40000   4.00000   4.00000  -.171256      
   1.60000   1.60000   3.17262  -.153886      
   1.60000   1.75000   3.32140  -.157433      
   1.60000   1.90000   3.47028  -.159231      
   1.60000   2.10000   3.66893  -.160442      
   1.60000   2.35000   3.91743  -.161653      
   1.60000   2.60000   4.16611  -.162973      
   1.60000   1.60000   2.95641  -.147883      
   1.60000   1.75000   3.09553  -.151948      
   1.60000   1.90000   3.23562  -.154345      
   1.60000   2.10000   3.42371  -.156406      
   1.60000   2.35000   3.66059  -.158601      
   1.60000   2.60000   3.89912  -.160660      
   1.60000   1.75000   2.90215  -.146180      
   1.60000   1.60000   2.53873  -.131688      
   1.60000   1.75000   2.65930  -.137009      
   1.60000   1.90000   2.78274  -.140987      
   1.60000   2.10000   2.95115  -.145378      
   1.60000   2.35000   3.16683  -.150247      
   1.60000   2.60000   3.38724  -.154498      
   1.60000   2.60000   3.05287  -.149022      
   1.60000   1.60000   1.95959  -.093813      
   1.60000   1.75000   2.08387  -.103993      
   1.60000   1.90000   2.21133  -.113535      
   1.60000   2.10000   2.38537  -.124812      
   1.60000   2.35000   2.60816  -.136200      
   1.60000   1.75000   1.75000  -.078142      
   1.60000   1.90000   1.90000  -.095333      
   1.60000   2.10000   2.10000  -.112909      
   1.60000   2.35000   2.35000  -.128889      
   1.60000   2.60000   2.60000  -.140296      
   1.75000   3.00000   4.75000  -.156545      
   1.75000   4.00000   5.75000  -.158597      
   1.75000   1.75000   3.47006  -.158731      
   1.75000   1.90000   3.61883  -.158365      
   1.75000   2.10000   3.81734  -.157219      
   1.75000   2.35000   4.06568  -.155997      
   1.75000   2.60000   4.31421  -.155764      
   1.75000   3.00000   4.59954  -.155916      
   1.75000   4.00000   5.58452  -.158411      
   1.75000   1.75000   3.23358  -.153622      
   1.75000   1.90000   3.37265  -.153768      
   1.75000   2.10000   3.55946  -.153302      
   1.75000   2.35000   3.79486  -.153021      
   1.75000   2.60000   4.03202  -.153455      
   1.75000   2.60000   3.79111  -.150981      
   1.75000   3.00000   4.16083  -.153534      
   1.75000   4.00000   5.10514  -.157805      
   1.75000   1.75000   2.77674  -.139385      
   1.75000   1.90000   2.89718  -.140750      
   1.75000   2.10000   3.06183  -.142254      
   1.75000   2.35000   3.27319  -.144543      
   1.75000   2.60000   3.48966  -.147174      
   1.75000   3.00000   3.47311  -.147797      
   1.75000   4.00000   4.36606  -.156359      
   1.75000   1.75000   2.14330  -.104384      
   1.75000   1.90000   2.26743  -.110322      
   1.75000   2.10000   2.43747  -.118746      
   1.75000   2.35000   2.65589  -.128392      
   1.75000   2.60000   2.87945  -.136262      
   1.75000   1.75000   1.75000  -.068697      
   1.75000   1.90000   1.90000  -.085836      
   1.75000   2.10000   2.10000  -.103316      
   1.75000   2.35000   2.35000  -.119213      
   1.75000   2.60000   2.60000  -.130521      
   1.75000   3.00000   3.00000  -.142484      
   1.75000   3.40000   3.40000  -.149648      
   1.75000   4.00000   4.00000  -.155357      
   1.90000   1.90000   3.76749  -.156009      
   1.90000   2.10000   3.96587  -.152284      
   1.90000   2.35000   4.21405  -.148525      
   1.90000   2.60000   4.46244  -.146468      
   1.90000   1.90000   3.51074  -.151771      
   1.90000   2.10000   3.69631  -.148661      
   1.90000   2.35000   3.93026  -.145694      
   1.90000   2.60000   4.16608  -.144279      
   1.90000   1.90000   3.01474  -.139461      
   1.90000   2.10000   3.17575  -.137889      
   1.90000   2.35000   3.38286  -.137177      
   1.90000   2.60000   3.59543  -.137886      
   1.90000   1.90000   2.32702  -.107536      
   1.90000   2.10000   2.49299  -.111791      
   1.90000   2.35000   2.70694  -.118821      
   1.90000   2.60000   2.92660  -.125505      
   1.90000   2.35000   2.35000  -.107141      
   1.90000   2.60000   2.60000  -.118430      
   2.10000   2.10000   4.16407  -.145264      
   2.10000   2.35000   4.41205  -.137910      
   2.10000   2.60000   4.66025  -.133085      
   2.10000   4.00000   5.91263  -.128986      
   2.10000   2.10000   3.88029  -.142029      
   2.10000   2.35000   4.11238  -.135335      
   2.10000   2.60000   4.34645  -.131060      
   2.10000   4.00000   5.36750  -.128396      
   2.10000   2.10000   3.33208  -.132141      
   2.10000   2.35000   3.53370  -.127111      
   2.10000   2.60000   3.74116  -.124708      
   2.10000   3.00000   3.66197  -.120548      
   2.10000   4.00000   4.51774  -.126825      
   2.10000   2.10000   2.57196  -.104503      
   2.10000   2.35000   2.77984  -.105975      
   2.10000   2.60000   2.99416  -.110128      
   2.10000   2.35000   2.35000  -.089216      
   2.10000   2.60000   2.60000  -.100535      
   2.10000   3.00000   3.00000  -.112461      
   2.10000   3.40000   3.40000  -.119608      
   2.10000   4.00000   4.00000  -.125400      
   2.35000   2.35000   4.65979  -.126050      
   2.35000   2.60000   4.90776  -.117370      
   2.35000   2.35000   4.34223  -.123799      
   2.35000   2.60000   4.57420  -.115589      
   2.35000   2.35000   3.72876  -.116470      
   2.35000   2.60000   3.93005  -.109619      
   2.35000   2.35000   2.87815  -.093980      
   2.35000   2.60000   3.08565  -.092506      
   2.35000   2.60000   2.60000  -.077647      
   2.60000   2.60000   5.15551  -.104754      
   2.60000   3.40000   5.79925  -.087691      
   2.60000   4.00000   6.38540  -.086138      
   2.60000   2.60000   4.80417  -.103213      
   2.60000   3.40000   5.21153  -.086473      
   2.60000   4.00000   5.75847  -.085618      
   2.60000   2.60000   4.12544  -.097974      
   2.60000   3.00000   3.96989  -.083656      
   2.60000   3.40000   4.28019  -.082599      
   2.60000   4.00000   4.77074  -.083926      
   2.60000   2.60000   3.18434  -.080141      
   2.60000   3.00000   3.00000  -.068361      
   2.60000   3.40000   3.40000  -.075738      
   2.60000   4.00000   4.00000  -.081702      
   3.00000   3.40000   6.40000  -.062596      
   3.00000   4.00000   7.00000  -.058289      
   3.00000   4.00000   6.76643  -.058218      
   3.00000   4.00000   6.08276  -.057733      
   3.00000   4.00000   5.00000  -.056124      
   3.00000   3.40000   3.40000  -.046907      
   3.00000   4.00000   4.00000  -.052971      
   3.40000   3.40000   6.80000  -.046660      
   3.40000   4.00000   7.40000  -.038038      
   3.40000   3.40000   6.56830  -.046539      
   3.40000   4.00000   7.14954  -.037917      
   3.40000   3.40000   5.88897  -.045854      
   3.40000   4.00000   6.41561  -.037613      
   3.40000   3.40000   4.80833  -.042749      
   3.40000   4.00000   5.24976  -.036149      
   3.40000   3.40000   3.40000  -.025485      
   3.40000   4.00000   4.00000  -.031634      
   1.20000   2.37697   2.37697  -.126342      
   1.40000   2.21359   2.21359  -.126390      
   1.60000   2.24722   2.24722  -.122877      
   1.80000   2.37697   2.37697  -.116768      
   2.00000   2.50799   2.50799  -.105900      
   2.00000   2.69258   2.69258  -.112956      
   1.20000   2.27392   2.47574  -.126452      
   1.40000   2.09511   2.32605  -.127058      
   1.60000   2.11342   2.37349  -.124454      
   1.80000   2.22763   2.51747  -.119205      
   2.00000   2.52621   2.84925  -.114965      
   1.20000   1.97689   2.37316  -.115209      
   1.40000   1.97344   2.43013  -.128838      
   1.60000   1.97505   2.48982  -.128529      
   2.00000   2.17180   2.80416  -.118073      
   1.20000   1.87350   2.45561  -.115714      
   1.40000   1.85203   2.52389  -.131111      
   1.60000   1.83576   2.59422  -.133717      
   1.80000   1.82483   2.66646  -.131858      
   1.81934   2.00000   2.74044  -.129877      
   1.81934   2.20000   2.81603  -.129341      
   1.40000   1.64018   2.50795  -.127103      
   1.60000   1.60720   2.58784  -.134124      
   1.42435   1.60000   2.39400  -.121444      
   1.40263   1.80000   2.47642  -.128352      
   1.20000   1.78259   2.68744  -.122051      
   1.40000   1.53136   2.57583  -.127262      
   1.29375   1.60000   2.46702  -.117584      
   1.25220   1.80000   2.55577  -.123429      
   1.21747   2.00000   2.64533  -.127556      
   1.20000   1.70695   2.73611  -.121569      
   1.40000   1.43706   2.62961  -.125384      
   1.36701   1.60000   2.72237  -.133464      
   1.20756   1.80000   2.71695  -.124472      
   1.14852   2.00000   2.81085  -.123395      
   1.20000   1.64900   2.77142  -.120818      
   1.36340   1.40000   2.66855  -.122058      
   1.27788   1.60000   2.76532  -.128086      
   1.19462   1.80000   2.86232  -.127311      
   1.11410   2.00000   2.95952  -.121094      
   1.20000   1.61248   2.79283  -.120116      
   1.40000   1.41586   2.79201  -.130182      
   1.31949   1.60000   2.89119  -.135858      
   1.22369   1.80000   2.99041  -.134237      
   1.12863   2.00000   3.08969  -.126745      
   1.20000   1.60000   2.80000  -.119845      
   1.30000   1.60000   2.90000  -.134474      
   1.20000   1.80000   3.00000  -.131771      
   1.10000   2.00000   3.10000  -.121352      
   1.17624   1.17624   1.40111   .025141      
   1.40111   1.58098   1.58098  -.057841      
   1.40111   2.01540   2.01540  -.111588      
   1.40111   2.46385   2.46385  -.140431      
   1.40111   2.91988   2.91988  -.156497      
   1.88973   2.11278   2.11278  -.093086      
   1.41730   1.41729   1.41729  -.023828      
   2.36216   2.36216   2.36216  -.065640      
   2.83459   2.83459   2.83459  -.045892      
    .60000   1.00000   1.00000   .556733      
    .60000   1.00000   1.41747   .476169      
    .60000   1.00000   1.60000   .460177      
    .80000    .80000    .80000   .526467      
    .80000    .80000   1.60000   .320915      
    .60000   1.40000   2.00000   .341006      
    .60000   2.60000   3.20000   .247745      
    .80000   1.50000   2.30000   .062060      
    .80000   1.50000   1.50000   .114430      
    .70000    .70000   1.40000   .540368      
    .90000    .90000   1.80000   .168990      
   1.20000   1.20000   2.40000  -.067222      
   1.40000   1.40000   2.80000  -.129432      
   1.20000   1.20000   1.20000   .057317      
   1.30000   1.30000   1.40000  -.006077      
   1.60000   1.60000   1.75000  -.073675      
   2.40000   2.40000   2.60000  -.075966      
772 5  0.156189 1.5000 1.247447 0.d0
   1.73700   1.77700   3.51400  -.159305
   1.75700   1.75700   3.50961  -.159212
   1.09000   2.84500   3.93500  -.139682
   1.09000   2.88390   3.90658  -.139747
   1.09000   2.99308   3.82358  -.139878
   1.09000   3.15303   3.69279  -.140025
   1.09000   3.33878   3.52573  -.140108
   1.40000   2.69000   4.09000  -.167118
   1.40000   2.74268   4.05486  -.167023
   1.40000   2.88902   3.95193  -.166786
   1.40000   3.09985   3.78881  -.166582
   1.40000   3.34035   3.57858  -.166503
   2.04000   2.37000   4.41000  -.141022
   2.04000   2.45641   4.36246  -.138488
   2.04000   2.68977   4.22258  -.133142
   2.04000   3.01242   3.99879  -.128932
   1.10000   2.64568   3.63307  -.137682
   2.06000   2.24783   4.08202  -.140628
    .95000   2.55000   3.50000  -.091592
   1.00000   2.55000   3.55000  -.110332
   1.02500   2.55000   3.57500  -.118224
   1.05000   2.55000   3.60000  -.125275
   1.10000   2.55000   3.65000  -.137070
   1.15000   2.55000   3.70000  -.146259
   1.21000   2.55000   3.76000  -.154428
   1.36000   2.55000   3.91000  -.164720
   1.51000   2.55000   4.06000  -.165712
   1.66000   2.55000   4.21000  -.160533
   1.81000   2.55000   4.36000  -.152582
   1.96000   2.55000   4.51000  -.143195
   2.11000   2.55000   4.66000  -.133484
   2.26000   2.55000   4.81000  -.124199
   2.46000   2.55000   5.01000  -.113379
   1.10000   1.10000   2.20000  -.013786
   1.30000   1.30000   2.60000  -.104420
   1.50000   1.50000   3.00000  -.145412
   1.60000   1.60000   3.20000  -.154609
   1.70000   1.70000   3.40000  -.158719
   1.75000   1.75000   3.50000  -.159276
   1.80000   1.80000   3.60000  -.159012
   1.90000   1.90000   3.80000  -.156457
   2.10000   2.10000   4.20000  -.145622
   2.30000   2.30000   4.60000  -.130437
   2.50000   2.50000   5.00000  -.113496
   2.70000   2.70000   5.40000  -.096405
   3.00000   3.00000   6.00000  -.072582
   4.00000   4.00000   8.00000  -.021478
   5.00000   5.00000  10.00000  -.004985
   1.29000   1.64000   2.93000  -.135746
   1.42000   1.72000   3.14000  -.150838
   1.55000   1.80000   3.35000  -.157948
   1.68000   1.88000   3.56000  -.159552
   1.81000   1.96000   3.77000  -.157358
   1.94000   2.04000   3.98000  -.152560
   1.22000   1.74000   2.96000  -.131914
   1.36000   1.81000   3.17000  -.150039
   1.50000   1.88000   3.38000  -.158235
   1.64000   1.95000   3.59000  -.159948
   2.06000   2.16000   4.22000  -.145199
   1.88000   2.02000   3.90000  -.154742
   1.19000   1.87000   3.06000  -.133442
   1.33000   1.92000   3.25000  -.151274
   1.47000   1.97000   3.44000  -.159048
   1.61000   2.02000   3.63000  -.160438
   1.75000   2.07000   3.82000  -.157802
   2.03000   2.17000   4.20000  -.146124
   1.16000   1.99000   3.15000  -.133216
   1.30000   2.03000   3.33000  -.151965
   1.44000   2.07000   3.51000  -.159939
   1.58000   2.11000   3.69000  -.161173
   1.72000   2.15000   3.87000  -.158235
   2.00000   2.23000   4.23000  -.145951
   1.11000   2.11000   3.22000  -.127765
   1.26000   2.14000   3.40000  -.151200
   1.41000   2.17000   3.58000  -.160727
   1.56000   2.20000   3.76000  -.161954
   1.71000   2.23000   3.94000  -.158300
   2.01000   2.29000   4.30000  -.144172
   1.09000   2.24000   3.33000  -.127400
   1.24000   2.26000   3.50000  -.151997
   1.39000   2.28000   3.67000  -.161832
   1.54000   2.30000   3.84000  -.162916
   1.69000   2.32000   4.01000  -.158896
   1.99000   2.36000   4.35000  -.143874
   2.29000   2.40000   4.69000  -.127072
   1.07000   2.41000   3.48000  -.127130
   1.22000   2.41000   3.63000  -.152937
   1.37000   2.41000   3.78000  -.163088
   1.52000   2.41000   3.93000  -.164047
   1.67000   2.41000   4.08000  -.159723
   1.97000   2.41000   4.38000  -.144199
   2.27000   2.41000   4.68000  -.127713
   1.06000   2.55000   3.61000  -.127696
   1.21000   2.55000   3.76000  -.154293
   1.36000   2.55000   3.91000  -.164606
   1.51000   2.55000   4.06000  -.165314
   1.66000   2.55000   4.21000  -.160441
   1.96000   2.55000   4.51000  -.143134
   2.26000   2.55000   4.81000  -.124146
   1.04000   2.69000   3.73000  -.124996
   1.19000   2.69000   3.88000  -.154054
   1.34000   2.69000   4.03000  -.165582
   1.49000   2.69000   4.18000  -.166747
   1.64000   2.69000   4.33000  -.161829
   1.94000   2.69000   4.63000  -.143436
   2.24000   2.69000   4.93000  -.122390
   1.03000   2.84000   3.87000  -.124510
   1.18000   2.84000   4.02000  -.154740
   1.33000   2.84000   4.17000  -.166773
   1.48000   2.84000   4.32000  -.168032
   1.63000   2.84000   4.47000  -.162927
   1.93000   2.84000   4.77000  -.143565
   2.23000   2.84000   5.07000  -.120881
   2.53000   2.84000   5.37000  -.100526
   1.02000   2.98000   4.00000  -.123379
   1.17000   2.98000   4.15000  -.154948
   1.32000   2.98000   4.30000  -.167639
   1.47000   2.98000   4.45000  -.169145
   1.62000   2.98000   4.60000  -.164022
   1.92000   2.98000   4.90000  -.144093
   2.22000   2.98000   5.20000  -.120291
   2.52000   2.98000   5.50000  -.098268
   1.01000   3.19000   4.20000  -.122457
   1.16000   3.19000   4.35000  -.155402
   1.31000   3.19000   4.50000  -.168769
   1.46000   3.19000   4.65000  -.170528
   1.61000   3.19000   4.80000  -.165384
   1.91000   3.19000   5.10000  -.144882
   2.21000   3.19000   5.40000  -.119954
   2.51000   3.19000   5.70000  -.096218
   1.00000   3.41000   4.41000  -.120917
   1.15000   3.41000   4.56000  -.155387
   1.30000   3.41000   4.71000  -.169558
   1.45000   3.41000   4.86000  -.171695
   1.60000   3.41000   5.01000  -.166664
   1.90000   3.41000   5.31000  -.145905
   2.20000   3.41000   5.61000  -.120287
   2.50000   3.41000   5.91000  -.095451
    .99000   3.64000   4.63000  -.118817
   1.14000   3.64000   4.78000  -.154938
   1.29000   3.64000   4.93000  -.170017
   1.44000   3.64000   5.08000  -.172630
   1.59000   3.64000   5.23000  -.167810
   1.89000   3.64000   5.53000  -.147015
   2.19000   3.64000   5.83000  -.120999
   2.49000   3.64000   6.13000  -.095490
    .98000   3.87000   4.85000  -.116194
   1.13000   3.87000   5.00000  -.154078
   1.28000   3.87000   5.15000  -.170151
   1.43000   3.87000   5.30000  -.173317
   1.58000   3.87000   5.45000  -.168783
   1.88000   3.87000   5.75000  -.148109
   2.18000   3.87000   6.05000  -.121891
   2.48000   3.87000   6.35000  -.095985
    .97000   4.15000   5.12000  -.113237
   1.12000   4.15000   5.27000  -.152974
   1.27000   4.15000   5.42000  -.170104
   1.42000   4.15000   5.57000  -.173872
   1.57000   4.15000   5.72000  -.169663
   1.87000   4.15000   6.02000  -.149190
   2.17000   4.15000   6.32000  -.122863
   2.47000   4.15000   6.62000  -.096685
    .96000   4.33000   5.29000  -.109726
   1.11000   4.33000   5.44000  -.151425
   1.26000   4.33000   5.59000  -.169690
   1.41000   4.33000   5.74000  -.174122
   1.56000   4.33000   5.89000  -.170298
   1.86000   4.33000   6.19000  -.150135
   2.16000   4.33000   6.49000  -.123815
   2.46000   4.33000   6.79000  -.097503
   1.65000   1.65000   3.30000  -.157224
   1.75700   1.75700   3.51400  -.159293
   1.85000   1.85000   3.70000  -.158036
   1.41400   3.17110   4.58510  -.170846
   1.41000   3.37110   4.78110  -.171873
   1.40700   3.57110   4.97810  -.172666
   1.03000   1.48000   2.51000  -.064867
   1.16000   1.56000   2.72000  -.108979
   1.05000   1.82000   2.87000  -.099654
    .91000   1.77000   2.68000  -.039771
    .96000   2.08000   3.04000  -.080883
    .92000   2.41000   3.33000  -.074579
    .89000   2.69000   3.58000  -.065961
    .87000   2.98000   3.85000  -.059446
    .85000   3.41000   4.26000  -.051486
    .83000   3.87000   4.70000  -.040494
    .81000   4.33000   5.14000  -.027106
   1.75700   1.75700   3.51186  -.159253
   1.75700   1.75700   3.50544  -.159143
   1.17000   1.17000   2.26027  -.049173
   1.37000   1.37000   2.64664  -.119504
   1.57000   1.57000   3.03301  -.149633
   1.67000   1.67000   3.22619  -.155424
   1.77000   1.77000   3.41938  -.157032
   1.87000   1.87000   3.61256  -.155504
   1.97000   1.97000   3.80575  -.151643
   2.17000   2.17000   4.19212  -.139315
   2.47000   2.47000   4.77167  -.115221
   2.67000   2.67000   5.15804  -.098296
   1.00000   1.40000   2.32053  -.039378
   1.10000   1.56000   2.57212  -.091506
   1.24500   1.65000   2.79832  -.127472
   1.38000   1.74000   3.01513  -.146280
   1.51500   1.83000   3.23205  -.155301
   1.65000   1.92000   3.44906  -.157676
   1.78500   2.01000   3.66615  -.155531
   1.92000   2.10000   3.88330  -.150353
    .97000   2.01000   2.89102  -.079780
   1.25000   2.09000   3.23351  -.147017
   1.39000   2.13000   3.40545  -.157608
   1.53000   2.17000   3.57776  -.160280
   1.67000   2.21000   3.75040  -.158029
   1.81000   2.25000   3.92331  -.152778
   2.09000   2.33000   4.26984  -.137986
    .90000   2.64000   3.44891  -.069295
   1.08000   2.66000   3.63563  -.133720
   1.26000   2.68000   3.82345  -.160088
   1.44000   2.70000   4.01221  -.166415
   1.62000   2.72000   4.20177  -.161993
   1.80000   2.74000   4.39205  -.151990
   2.16000   2.78000   4.77437  -.125978
   2.52000   2.82000   5.15863  -.101009
    .90000   3.40000   4.20358  -.079548
   1.10000   3.40000   4.38724  -.146421
   1.25000   3.40000   4.52589  -.166159
   1.40000   3.40000   4.66525  -.171619
   1.55000   3.40000   4.80525  -.168568
   1.80000   3.40000   5.03986  -.153421
   2.00000   3.40000   5.22857  -.137180
   3.00000   3.40000   6.18279  -.062339
   1.20000   1.20000   2.07846  -.049667
   1.40000   1.40000   2.42487  -.113943
   1.60000   1.60000   2.77128  -.141703
   1.70000   1.70000   2.94449  -.147084
   1.80000   1.80000   3.11769  -.148591
   1.90000   1.90000   3.29090  -.147180
   2.00000   2.00000   3.46410  -.143591
   2.20000   2.20000   3.81051  -.132028
   2.50000   2.50000   4.33013  -.109307
   1.00000   1.40000   2.08806  -.027042
   1.14220   1.66000   2.44055  -.099575
   1.27580   1.74000   2.62205  -.126782
   1.40940   1.82000   2.80427  -.141813
   1.54300   1.90000   2.98706  -.148679
   1.60980   1.94000   3.07865  -.149907
   1.67660   1.98000   3.17034  -.150006
   1.74340   2.02000   3.26213  -.149174
   1.94380   2.14000   3.53803  -.142633
   1.03200   1.88000   2.55726  -.087035
   1.16400   1.94000   2.71600  -.121895
   1.29600   2.00000   2.87604  -.141152
   1.42800   2.06000   3.03718  -.150316
   1.56000   2.12000   3.19925  -.152866
   1.69200   2.18000   3.36212  -.151076
   1.82400   2.24000   3.52567  -.146473
   2.08800   2.36000   3.85448  -.132629
    .91000   2.14000   2.71203  -.052932
   1.07000   2.18000   2.86878  -.113299
   1.23000   2.22000   3.02851  -.142596
   1.39000   2.26000   3.19078  -.154258
   1.55000   2.30000   3.35522  -.155760
   1.71000   2.34000   3.52152  -.151429
   1.87000   2.38000   3.68943  -.143913
   2.19000   2.46000   4.02928  -.125299
    .91000   2.74000   3.29076  -.073671
   1.09000   2.76000   3.43716  -.134769
   1.27000   2.78000   3.58774  -.159222
   1.45000   2.80000   3.74199  -.164342
   1.63000   2.82000   3.89947  -.159128
   1.81000   2.84000   4.05982  -.148530
   2.17000   2.88000   4.38781  -.121667
   2.53000   2.92000   4.72386  -.095931
    .90000   3.40000   3.92810  -.078461
   1.10000   3.40000   4.06325  -.145207
   1.25000   3.40000   4.16803  -.164886
   1.40000   3.40000   4.27551  -.170295
   1.55000   3.40000   4.38549  -.167202
   1.80000   3.40000   4.57384  -.152020
   2.00000   3.40000   4.72864  -.135784
   3.00000   3.40000   5.54617  -.061322
   1.50000   1.50000   2.12132  -.104424
   1.70000   1.70000   2.40416  -.123574
   1.80000   1.80000   2.54558  -.126821
   1.90000   1.90000   2.68701  -.127150
   2.00000   2.00000   2.82843  -.125261
   2.10000   2.10000   2.96985  -.121720
   2.30000   2.30000   3.25269  -.111291
   2.50000   2.50000   3.53553  -.098407
   1.20000   1.40000   1.84391  -.056318
   1.58000   1.78000   2.38008  -.123573
   1.72000   1.92000   2.57775  -.128528
   1.79000   1.99000   2.67660  -.128764
   1.86000   2.06000   2.77546  -.127859
   2.00000   2.20000   2.97321  -.123395
   2.14000   2.34000   3.17099  -.116454
   1.11000   1.78000   2.09774  -.082093
   1.45000   2.02000   2.48654  -.132193
   1.62000   2.14000   2.68403  -.135991
   1.79000   2.26000   2.88300  -.132853
   2.13000   2.50000   3.28434  -.115982
   1.46000   2.48000   2.87785  -.149523
   1.85400   2.54800   3.15113  -.133923
   2.44500   2.65000   3.60562  -.096869
    .90000   3.44000   3.55578  -.076332
   1.10000   3.44000   3.61159  -.143198
   1.25000   3.44000   3.66007  -.162183
   1.40000   3.44000   3.71397  -.167815
   1.55000   3.44000   3.77308  -.164105
   1.80000   3.44000   3.88247  -.149011
   2.00000   3.44000   3.97915  -.132539
   3.00000   3.44000   4.56438  -.057237
   2.30000   2.62500   3.49008  -.105250
   1.00000   2.40100   2.60092  -.092510
    .90000    .90000    .90000   .342584
   1.25000   1.25000   1.25000   .032571
   1.60000   1.60000   1.60000  -.056313
   1.90000   1.90000   1.90000  -.074010
   2.00000   2.00000   2.00000  -.074501
   2.10000   2.10000   2.10000  -.073400
   2.50000   2.50000   2.50000  -.060287
    .60000    .80000   1.40000   .593580
    .60000   1.75000   2.35000   .294257
    .60000   2.10000   2.70000   .268052
    .60000   3.40000   4.00000   .234879
    .60000    .80000   1.31402   .602586
    .60000   1.00000   1.51574   .467071
    .60000   1.40000   1.91743   .345679
    .60000   1.75000   2.26814   .297368
    .60000   2.10000   2.61855   .270010
    .60000   2.60000   3.11889   .248760
    .60000   3.40000   3.91918   .235163
    .60000    .80000   1.08811   .639758
    .60000   1.00000   1.29205   .491017
    .60000   1.40000   1.69570   .360147
    .60000   1.75000   2.04716   .306758
    .60000   2.10000   2.39798   .276133
    .60000   2.60000   2.89865   .251943
    .60000   3.40000   3.69919   .236195
    .60000    .80000    .80000   .761954
    .60000   1.40000   1.40000   .388481
    .60000   1.75000   1.75000   .323524
    .60000   2.10000   2.10000   .286566
    .60000   2.60000   2.60000   .257232
    .60000   3.40000   3.40000   .237882
    .80000   1.00000   1.80000   .189865
    .80000   1.20000   2.00000   .118973
    .80000   1.90000   2.70000   .024175
    .80000   2.10000   2.90000   .012779
    .80000   2.35000   3.15000   .002466
    .80000    .80000   1.58631   .321999
    .80000   1.00000   1.78479   .190905
    .80000   1.40000   2.18258   .077735
    .80000   1.75000   2.53122   .035983
    .80000   2.10000   2.88019   .013161
    .80000   2.60000   3.37909  -.004505
    .80000    .80000   1.54548   .325350
    .80000   1.00000   1.73944   .194089
    .80000   1.20000   1.93462   .122954
    .80000   1.40000   2.13070   .080353
    .80000   1.60000   2.32745   .052759
    .80000   1.75000   2.47535   .037837
    .80000   1.90000   2.62349   .026293
    .80000   2.10000   2.82132   .014470
    .80000   2.35000   3.06900   .003768
    .80000   3.00000   3.71442  -.011567
    .80000   4.00000   4.70984  -.018729
    .80000    .80000   1.47821   .331266
    .80000   1.00000   1.66474   .199722
    .80000   1.40000   2.04546   .084905
    .80000   1.75000   2.38378   .041053
    .80000   2.10000   2.72505   .016675
    .80000   2.60000   3.21583  -.002631
    .80000    .80000   1.38564   .340628
    .80000   1.00000   1.56205   .208351
    .80000   1.20000   1.74356   .135900
    .80000   1.40000   1.92873   .091720
    .80000   1.60000   2.11660   .062287
    .80000   1.75000   2.25887   .046087
    .80000   1.90000   2.40208   .033171
    .80000   2.35000   2.83593   .007936
    .80000   3.00000   3.46987  -.009740
    .80000   4.00000   4.45421  -.018296
    .80000    .80000   1.26937   .355725
    .80000   1.00000   1.43322   .221312
    .80000   1.40000   1.78319   .101354
    .80000   1.75000   2.10409   .052948
    .80000   2.10000   2.43303   .024677
    .80000   2.60000   2.91148   .001736
    .80000    .80000   1.13137   .382257
    .80000   1.00000   1.28062   .242008
    .80000   1.20000   1.44222   .163863
    .80000   1.40000   1.61245   .114910
    .80000   1.75000   1.92419   .062254
    .80000   2.10000   2.24722   .030807
    .80000   2.60000   2.72029   .005016
    .80000   3.00000   3.10483  -.006274
    .80000   4.00000   4.07922  -.017518
    .80000    .80000    .97980   .428852
    .80000   1.00000   1.14891   .267898
    .80000   1.00000   1.00000   .312428
    .80000   1.20000   1.20000   .200922
    .80000   1.75000   1.75000   .072916
    .80000   1.90000   1.90000   .054989
    .80000   2.10000   2.10000   .036327
    .80000   2.35000   2.35000   .019414
    .80000   2.60000   2.60000   .007366
    .80000   3.00000   3.00000  -.005118
    .80000   4.00000   4.00000  -.017338
   1.00000   1.00000   2.00000   .062010
   1.00000   1.20000   2.20000  -.004930
   1.00000   1.00000   1.98289   .063089
   1.00000   1.20000   2.18133  -.003866
   1.00000   1.40000   2.38004  -.041974
   1.00000   1.60000   2.57895  -.065560
   1.00000   1.75000   2.72823  -.077744
   1.00000   1.90000   2.87759  -.087079
   1.00000   2.10000   3.07683  -.096439
   1.00000   2.35000   3.32601  -.105015
   1.00000   2.60000   3.57531  -.111072
   1.00000   1.00000   1.93185   .066366
   1.00000   1.20000   2.12567  -.000721
   1.00000   1.75000   2.66338  -.075740
   1.00000   2.35000   3.25466  -.103987
   1.00000   3.00000   3.89822  -.116961
   1.00000   4.00000   4.89165  -.123368
   1.00000   1.00000   1.84776   .072104
   1.00000   1.20000   2.03398   .004748
   1.00000   1.40000   2.22259  -.034342
   1.00000   1.60000   2.41304  -.059028
   1.00000   1.75000   2.55683  -.072121
   1.00000   1.90000   2.70130  -.082255
   1.00000   2.10000   2.89480  -.092557
   1.00000   2.35000   3.13782  -.102163
   1.00000   2.60000   3.38186  -.108998
   1.00000   1.00000   1.73205   .080830
   1.00000   1.20000   1.90788   .013030
   1.00000   1.60000   2.27156  -.052705
   1.00000   2.35000   2.97867  -.099335
   1.00000   3.00000   3.60555  -.115029
   1.00000   4.00000   4.58258  -.122981
   1.00000   1.00000   1.58671   .093710
   1.00000   1.20000   1.74962   .025168
   1.00000   1.40000   1.91956  -.016107
   1.00000   1.60000   2.09481  -.043556
   1.00000   1.75000   2.22898  -.058777
   1.00000   1.90000   2.36506  -.070932
   1.00000   2.10000   2.54893  -.083590
   1.00000   2.35000   2.78190  -.095419
   1.00000   2.60000   3.01759  -.104054
   1.00000   1.00000   1.41421   .113419
   1.00000   1.20000   1.56205   .042992
   1.00000   1.40000   1.72047  -.000850
   1.00000   1.60000   1.88680  -.030885
   1.00000   1.90000   2.14709  -.061796
   1.00000   2.10000   2.32594  -.076440
   1.00000   3.00000   3.16228  -.111028
   1.00000   4.00000   4.12311  -.121997
   1.00000   1.00000   1.22475   .145193
   1.00000   1.20000   1.39284   .063941
   1.00000   1.40000   1.56844   .013239
   1.00000   1.00000   1.00000   .212316
   1.00000   1.20000   1.20000   .097433
   1.00000   1.40000   1.40000   .032223
   1.00000   1.60000   1.60000  -.009441
   1.00000   1.75000   1.75000  -.031991
   1.00000   1.90000   1.90000  -.049759
   1.00000   2.10000   2.10000  -.068121
   1.00000   2.35000   2.35000  -.084791
   1.00000   2.60000   2.60000  -.096671
   1.00000   3.00000   3.00000  -.109209
   1.00000   3.40000   3.40000  -.116407
   1.00000   4.00000   4.00000  -.121655
   1.20000   1.40000   2.60000  -.100626
   1.20000   1.20000   2.37947  -.066185
   1.20000   1.40000   2.57789  -.099732
   1.20000   1.60000   2.77654  -.119075
   1.20000   1.75000   2.92564  -.128549
   1.20000   1.90000   3.07484  -.135622
   1.20000   2.10000   3.27388  -.142631
   1.20000   2.35000   3.52283  -.149056
   1.20000   2.60000   3.77192  -.153770
   1.20000   1.40000   2.51194  -.096988
   1.20000   1.20000   2.21731  -.057825
   1.20000   1.40000   2.40331  -.092050
   1.20000   1.60000   2.59139  -.112432
   1.20000   1.75000   2.73356  -.122751
   1.20000   1.90000   2.87653  -.130559
   1.20000   2.10000   3.06819  -.138562
   1.20000   2.35000   3.30917  -.146039
   1.20000   2.60000   3.55139  -.151552
   1.20000   1.40000   2.25389  -.084385
   1.20000   1.20000   1.90405  -.037233
   1.20000   1.40000   2.06631  -.072871
   1.20000   1.60000   2.23470  -.095736
   1.20000   1.75000   2.36422  -.108188
   1.20000   1.90000   2.49604  -.118150
   1.20000   2.10000   2.67478  -.128661
   1.20000   2.35000   2.90211  -.138708
   1.20000   2.60000   3.13290  -.146190
   1.20000   2.10000   2.41868  -.120461
   1.20000   2.60000   2.86356  -.141803
   1.20000   1.20000   1.46969   .007390
   1.20000   1.40000   1.63707  -.036786
   1.20000   1.60000   1.81108  -.067743
   1.20000   1.75000   1.94487  -.085448
   1.20000   1.40000   1.40000  -.008933
   1.20000   1.60000   1.60000  -.050657
   1.20000   1.75000   1.75000  -.073045
   1.20000   1.90000   1.90000  -.090574
   1.20000   2.10000   2.10000  -.108642
   1.20000   2.35000   2.35000  -.125090
   1.20000   2.60000   2.60000  -.136841
   1.40000   1.40000   2.77605  -.128521
   1.40000   1.60000   2.97445  -.143372
   1.40000   1.75000   3.12339  -.149947
   1.40000   1.90000   3.27242  -.154481
   1.40000   2.10000   3.47126  -.158764
   1.40000   2.35000   3.71999  -.162760
   1.40000   2.60000   3.96887  -.165962
   1.40000   1.60000   2.89824  -.141091
   1.40000   3.00000   4.27020  -.169178
   1.40000   4.00000   5.25923  -.173644
   1.40000   1.40000   2.58686  -.121259
   1.40000   1.60000   2.77270  -.136955
   1.40000   1.75000   2.91330  -.144172
   1.40000   1.90000   3.05480  -.149401
   1.40000   2.10000   3.24466  -.154644
   1.40000   2.35000   3.48357  -.159654
   1.40000   2.60000   3.72394  -.163650
   1.40000   1.60000   2.60000  -.130235
   1.40000   4.00000   4.85387  -.173101
   1.40000   1.40000   2.22139  -.102539
   1.40000   1.60000   2.38317  -.119914
   1.40000   1.75000   2.50813  -.129043
   1.40000   1.90000   2.63570  -.136221
   1.40000   2.10000   2.80924  -.144029
   1.40000   2.35000   3.03076  -.151756
   1.40000   2.60000   3.25641  -.157793
   1.40000   1.40000   1.97990  -.085662
   1.40000   1.60000   2.12603  -.104447
   1.40000   1.75000   2.24109  -.115333
   1.40000   3.00000   3.31059  -.161879
   1.40000   4.00000   4.23792  -.171940
   1.40000   1.40000   1.71464  -.061318
   1.40000   1.60000   1.88149  -.085935
   1.40000   1.75000   2.01060  -.100977
   1.40000   1.90000   2.14243  -.113552
   1.40000   2.10000   2.32164  -.127169
   1.40000   1.75000   1.75000  -.083384
   1.40000   3.40000   3.40000  -.165706
   1.40000   4.00000   4.00000  -.171256
   1.60000   1.60000   3.17262  -.153886
   1.60000   1.75000   3.32140  -.157433
   1.60000   1.90000   3.47028  -.159231
   1.60000   2.10000   3.66893  -.160442
   1.60000   2.35000   3.91743  -.161653
   1.60000   2.60000   4.16611  -.162973
   1.60000   1.60000   2.95641  -.147883
   1.60000   1.75000   3.09553  -.151948
   1.60000   1.90000   3.23562  -.154345
   1.60000   2.10000   3.42371  -.156406
   1.60000   2.35000   3.66059  -.158601
   1.60000   2.60000   3.89912  -.160660
   1.60000   1.75000   2.90215  -.146180
   1.60000   1.60000   2.53873  -.131688
   1.60000   1.75000   2.65930  -.137009
   1.60000   1.90000   2.78274  -.140987
   1.60000   2.10000   2.95115  -.145378
   1.60000   2.35000   3.16683  -.150247
   1.60000   2.60000   3.38724  -.154498
   1.60000   2.60000   3.05287  -.149022
   1.60000   1.60000   1.95959  -.093813
   1.60000   1.75000   2.08387  -.103993
   1.60000   1.90000   2.21133  -.113535
   1.60000   2.10000   2.38537  -.124812
   1.60000   2.35000   2.60816  -.136200
   1.60000   1.75000   1.75000  -.078142
   1.60000   1.90000   1.90000  -.095333
   1.60000   2.10000   2.10000  -.112909
   1.60000   2.35000   2.35000  -.128889
   1.60000   2.60000   2.60000  -.140296
   1.75000   3.00000   4.75000  -.156545
   1.75000   4.00000   5.75000  -.158597
   1.75000   1.75000   3.47006  -.158731
   1.75000   1.90000   3.61883  -.158365
   1.75000   2.10000   3.81734  -.157219
   1.75000   2.35000   4.06568  -.155997
   1.75000   2.60000   4.31421  -.155764
   1.75000   3.00000   4.59954  -.155916
   1.75000   4.00000   5.58452  -.158411
   1.75000   1.75000   3.23358  -.153622
   1.75000   1.90000   3.37265  -.153768
   1.75000   2.10000   3.55946  -.153302
   1.75000   2.35000   3.79486  -.153021
   1.75000   2.60000   4.03202  -.153455
   1.75000   2.60000   3.79111  -.150981
   1.75000   3.00000   4.16083  -.153534
   1.75000   4.00000   5.10514  -.157805
   1.75000   1.75000   2.77674  -.139385
   1.75000   1.90000   2.89718  -.140750
   1.75000   2.10000   3.06183  -.142254
   1.75000   2.35000   3.27319  -.144543
   1.75000   2.60000   3.48966  -.147174
   1.75000   3.00000   3.47311  -.147797
   1.75000   4.00000   4.36606  -.156359
   1.75000   1.75000   2.14330  -.104384
   1.75000   1.90000   2.26743  -.110322
   1.75000   2.10000   2.43747  -.118746
   1.75000   2.35000   2.65589  -.128392
   1.75000   2.60000   2.87945  -.136262
   1.75000   1.75000   1.75000  -.068697
   1.75000   1.90000   1.90000  -.085836
   1.75000   2.10000   2.10000  -.103316
   1.75000   2.35000   2.35000  -.119213
   1.75000   2.60000   2.60000  -.130521
   1.75000   3.00000   3.00000  -.142484
   1.75000   3.40000   3.40000  -.149648
   1.75000   4.00000   4.00000  -.155357
   1.90000   1.90000   3.76749  -.156009
   1.90000   2.10000   3.96587  -.152284
   1.90000   2.35000   4.21405  -.148525
   1.90000   2.60000   4.46244  -.146468
   1.90000   1.90000   3.51074  -.151771
   1.90000   2.10000   3.69631  -.148661
   1.90000   2.35000   3.93026  -.145694
   1.90000   2.60000   4.16608  -.144279
   1.90000   1.90000   3.01474  -.139461
   1.90000   2.10000   3.17575  -.137889
   1.90000   2.35000   3.38286  -.137177
   1.90000   2.60000   3.59543  -.137886
   1.90000   1.90000   2.32702  -.107536
   1.90000   2.10000   2.49299  -.111791
   1.90000   2.35000   2.70694  -.118821
   1.90000   2.60000   2.92660  -.125505
   1.90000   2.35000   2.35000  -.107141
   1.90000   2.60000   2.60000  -.118430
   2.10000   2.10000   4.16407  -.145264
   2.10000   2.35000   4.41205  -.137910
   2.10000   2.60000   4.66025  -.133085
   2.10000   4.00000   5.91263  -.128986
   2.10000   2.10000   3.88029  -.142029
   2.10000   2.35000   4.11238  -.135335
   2.10000   2.60000   4.34645  -.131060
   2.10000   4.00000   5.36750  -.128396
   2.10000   2.10000   3.33208  -.132141
   2.10000   2.35000   3.53370  -.127111
   2.10000   2.60000   3.74116  -.124708
   2.10000   3.00000   3.66197  -.120548
   2.10000   4.00000   4.51774  -.126825
   2.10000   2.10000   2.57196  -.104503
   2.10000   2.35000   2.77984  -.105975
   2.10000   2.60000   2.99416  -.110128
   2.10000   2.35000   2.35000  -.089216
   2.10000   2.60000   2.60000  -.100535
   2.10000   3.00000   3.00000  -.112461
   2.10000   3.40000   3.40000  -.119608
   2.10000   4.00000   4.00000  -.125400
   2.35000   2.35000   4.65979  -.126050
   2.35000   2.60000   4.90776  -.117370
   2.35000   2.35000   4.34223  -.123799
   2.35000   2.60000   4.57420  -.115589
   2.35000   2.35000   3.72876  -.116470
   2.35000   2.60000   3.93005  -.109619
   2.35000   2.35000   2.87815  -.093980
   2.35000   2.60000   3.08565  -.092506
   2.35000   2.60000   2.60000  -.077647
   2.60000   2.60000   5.15551  -.104754
   2.60000   3.40000   5.79925  -.087691
   2.60000   4.00000   6.38540  -.086138
   2.60000   2.60000   4.80417  -.103213
   2.60000   3.40000   5.21153  -.086473
   2.60000   4.00000   5.75847  -.085618
   2.60000   2.60000   4.12544  -.097974
   2.60000   3.00000   3.96989  -.083656
   2.60000   3.40000   4.28019  -.082599
   2.60000   4.00000   4.77074  -.083926
   2.60000   2.60000   3.18434  -.080141
   2.60000   3.00000   3.00000  -.068361
   2.60000   3.40000   3.40000  -.075738
   2.60000   4.00000   4.00000  -.081702
   3.00000   3.40000   6.40000  -.062596
   3.00000   4.00000   7.00000  -.058289
   3.00000   4.00000   6.76643  -.058218
   3.00000   4.00000   6.08276  -.057733
   3.00000   4.00000   5.00000  -.056124
   3.00000   3.40000   3.40000  -.046907
   3.00000   4.00000   4.00000  -.052971
   3.40000   3.40000   6.80000  -.046660
   3.40000   4.00000   7.40000  -.038038
   3.40000   3.40000   6.56830  -.046539
   3.40000   4.00000   7.14954  -.037917
   3.40000   3.40000   5.88897  -.045854
   3.40000   4.00000   6.41561  -.037613
   3.40000   3.40000   4.80833  -.042749
   3.40000   4.00000   5.24976  -.036149
   3.40000   3.40000   3.40000  -.025485
   3.40000   4.00000   4.00000  -.031634
   1.20000   2.37697   2.37697  -.126342
   1.40000   2.21359   2.21359  -.126390
   1.60000   2.24722   2.24722  -.122877
   1.80000   2.37697   2.37697  -.116768
   2.00000   2.50799   2.50799  -.105900
   2.00000   2.69258   2.69258  -.112956
   1.20000   2.27392   2.47574  -.126452
   1.40000   2.09511   2.32605  -.127058
   1.60000   2.11342   2.37349  -.124454
   1.80000   2.22763   2.51747  -.119205
   2.00000   2.52621   2.84925  -.114965
   1.20000   1.97689   2.37316  -.115209
   1.40000   1.97344   2.43013  -.128838
   1.60000   1.97505   2.48982  -.128529
   2.00000   2.17180   2.80416  -.118073
   1.20000   1.87350   2.45561  -.115714
   1.40000   1.85203   2.52389  -.131111
   1.60000   1.83576   2.59422  -.133717
   1.80000   1.82483   2.66646  -.131858
   1.81934   2.00000   2.74044  -.129877
   1.81934   2.20000   2.81603  -.129341
   1.40000   1.64018   2.50795  -.127103
   1.60000   1.60720   2.58784  -.134124
   1.42435   1.60000   2.39400  -.121444
   1.40263   1.80000   2.47642  -.128352
   1.20000   1.78259   2.68744  -.122051
   1.40000   1.53136   2.57583  -.127262
   1.29375   1.60000   2.46702  -.117584
   1.25220   1.80000   2.55577  -.123429
   1.21747   2.00000   2.64533  -.127556
   1.20000   1.70695   2.73611  -.121569
   1.40000   1.43706   2.62961  -.125384
   1.36701   1.60000   2.72237  -.133464
   1.20756   1.80000   2.71695  -.124472
   1.14852   2.00000   2.81085  -.123395
   1.20000   1.64900   2.77142  -.120818
   1.36340   1.40000   2.66855  -.122058
   1.27788   1.60000   2.76532  -.128086
   1.19462   1.80000   2.86232  -.127311
   1.11410   2.00000   2.95952  -.121094
   1.20000   1.61248   2.79283  -.120116
   1.40000   1.41586   2.79201  -.130182
   1.31949   1.60000   2.89119  -.135858
   1.22369   1.80000   2.99041  -.134237
   1.12863   2.00000   3.08969  -.126745
   1.20000   1.60000   2.80000  -.119845
   1.30000   1.60000   2.90000  -.134474
   1.20000   1.80000   3.00000  -.131771
   1.10000   2.00000   3.10000  -.121352
   1.17624   1.17624   1.40111   .025141
   1.40111   1.58098   1.58098  -.057841
   1.40111   2.01540   2.01540  -.111588
   1.40111   2.46385   2.46385  -.140431
   1.40111   2.91988   2.91988  -.156497
   1.88973   2.11278   2.11278  -.093086
   1.41730   1.41729   1.41729  -.023828
   2.36216   2.36216   2.36216  -.065640
   2.83459   2.83459   2.83459  -.045892
    .60000   1.00000   1.00000   .556733
    .60000   1.00000   1.41747   .476169
    .60000   1.00000   1.60000   .460177
    .80000    .80000    .80000   .526467
    .80000    .80000   1.60000   .320915
    .60000   1.40000   2.00000   .341006
    .60000   2.60000   3.20000   .247745
    .80000   1.50000   2.30000   .062060
    .80000   1.50000   1.50000   .114430
    .70000    .70000   1.40000   .540368
    .90000    .90000   1.80000   .168990
   1.20000   1.20000   2.40000  -.067222
   1.40000   1.40000   2.80000  -.129432
   1.20000   1.20000   1.20000   .057317
   1.30000   1.30000   1.40000  -.006077
   1.60000   1.60000   1.75000  -.073675
   2.40000   2.40000   2.60000  -.075966
772 5  0.156189 1.5000 1.247447  0.d0
   1.73700   1.77700   3.51400  -.159305
   1.75700   1.75700   3.50961  -.159212
   1.09000   2.84500   3.93500  -.139682
   1.09000   2.88390   3.90658  -.139747
   1.09000   2.99308   3.82358  -.139878
   1.09000   3.15303   3.69279  -.140025
   1.09000   3.33878   3.52573  -.140108
   1.40000   2.69000   4.09000  -.167118
   1.40000   2.74268   4.05486  -.167023
   1.40000   2.88902   3.95193  -.166786
   1.40000   3.09985   3.78881  -.166582
   1.40000   3.34035   3.57858  -.166503
   2.04000   2.37000   4.41000  -.141022
   2.04000   2.45641   4.36246  -.138488
   2.04000   2.68977   4.22258  -.133142
   2.04000   3.01242   3.99879  -.128932
   1.10000   2.64568   3.63307  -.137682
   2.06000   2.24783   4.08202  -.140628
    .95000   2.55000   3.50000  -.091592
   1.00000   2.55000   3.55000  -.110332
   1.02500   2.55000   3.57500  -.118224
   1.05000   2.55000   3.60000  -.125275
   1.10000   2.55000   3.65000  -.137070
   1.15000   2.55000   3.70000  -.146259
   1.21000   2.55000   3.76000  -.154428
   1.36000   2.55000   3.91000  -.164720
   1.51000   2.55000   4.06000  -.165712
   1.66000   2.55000   4.21000  -.160533
   1.81000   2.55000   4.36000  -.152582
   1.96000   2.55000   4.51000  -.143195
   2.11000   2.55000   4.66000  -.133484
   2.26000   2.55000   4.81000  -.124199
   2.46000   2.55000   5.01000  -.113379
   1.10000   1.10000   2.20000  -.013786
   1.30000   1.30000   2.60000  -.104420
   1.50000   1.50000   3.00000  -.145412
   1.60000   1.60000   3.20000  -.154609
   1.70000   1.70000   3.40000  -.158719
   1.75000   1.75000   3.50000  -.159276
   1.80000   1.80000   3.60000  -.159012
   1.90000   1.90000   3.80000  -.156457
   2.10000   2.10000   4.20000  -.145622
   2.30000   2.30000   4.60000  -.130437
   2.50000   2.50000   5.00000  -.113496
   2.70000   2.70000   5.40000  -.096405
   3.00000   3.00000   6.00000  -.072582
   4.00000   4.00000   8.00000  -.021478
   5.00000   5.00000  10.00000  -.004985
   1.29000   1.64000   2.93000  -.135746
   1.42000   1.72000   3.14000  -.150838
   1.55000   1.80000   3.35000  -.157948
   1.68000   1.88000   3.56000  -.159552
   1.81000   1.96000   3.77000  -.157358
   1.94000   2.04000   3.98000  -.152560
   1.22000   1.74000   2.96000  -.131914
   1.36000   1.81000   3.17000  -.150039
   1.50000   1.88000   3.38000  -.158235
   1.64000   1.95000   3.59000  -.159948
   2.06000   2.16000   4.22000  -.145199
   1.88000   2.02000   3.90000  -.154742
   1.19000   1.87000   3.06000  -.133442
   1.33000   1.92000   3.25000  -.151274
   1.47000   1.97000   3.44000  -.159048
   1.61000   2.02000   3.63000  -.160438
   1.75000   2.07000   3.82000  -.157802
   2.03000   2.17000   4.20000  -.146124
   1.16000   1.99000   3.15000  -.133216
   1.30000   2.03000   3.33000  -.151965
   1.44000   2.07000   3.51000  -.159939
   1.58000   2.11000   3.69000  -.161173
   1.72000   2.15000   3.87000  -.158235
   2.00000   2.23000   4.23000  -.145951
   1.11000   2.11000   3.22000  -.127765
   1.26000   2.14000   3.40000  -.151200
   1.41000   2.17000   3.58000  -.160727
   1.56000   2.20000   3.76000  -.161954
   1.71000   2.23000   3.94000  -.158300
   2.01000   2.29000   4.30000  -.144172
   1.09000   2.24000   3.33000  -.127400
   1.24000   2.26000   3.50000  -.151997
   1.39000   2.28000   3.67000  -.161832
   1.54000   2.30000   3.84000  -.162916
   1.69000   2.32000   4.01000  -.158896
   1.99000   2.36000   4.35000  -.143874
   2.29000   2.40000   4.69000  -.127072
   1.07000   2.41000   3.48000  -.127130
   1.22000   2.41000   3.63000  -.152937
   1.37000   2.41000   3.78000  -.163088
   1.52000   2.41000   3.93000  -.164047
   1.67000   2.41000   4.08000  -.159723
   1.97000   2.41000   4.38000  -.144199
   2.27000   2.41000   4.68000  -.127713
   1.06000   2.55000   3.61000  -.127696
   1.21000   2.55000   3.76000  -.154293
   1.36000   2.55000   3.91000  -.164606
   1.51000   2.55000   4.06000  -.165314
   1.66000   2.55000   4.21000  -.160441
   1.96000   2.55000   4.51000  -.143134
   2.26000   2.55000   4.81000  -.124146
   1.04000   2.69000   3.73000  -.124996
   1.19000   2.69000   3.88000  -.154054
   1.34000   2.69000   4.03000  -.165582
   1.49000   2.69000   4.18000  -.166747
   1.64000   2.69000   4.33000  -.161829
   1.94000   2.69000   4.63000  -.143436
   2.24000   2.69000   4.93000  -.122390
   1.03000   2.84000   3.87000  -.124510
   1.18000   2.84000   4.02000  -.154740
   1.33000   2.84000   4.17000  -.166773
   1.48000   2.84000   4.32000  -.168032
   1.63000   2.84000   4.47000  -.162927
   1.93000   2.84000   4.77000  -.143565
   2.23000   2.84000   5.07000  -.120881
   2.53000   2.84000   5.37000  -.100526
   1.02000   2.98000   4.00000  -.123379
   1.17000   2.98000   4.15000  -.154948
   1.32000   2.98000   4.30000  -.167639
   1.47000   2.98000   4.45000  -.169145
   1.62000   2.98000   4.60000  -.164022
   1.92000   2.98000   4.90000  -.144093
   2.22000   2.98000   5.20000  -.120291
   2.52000   2.98000   5.50000  -.098268
   1.01000   3.19000   4.20000  -.122457
   1.16000   3.19000   4.35000  -.155402
   1.31000   3.19000   4.50000  -.168769
   1.46000   3.19000   4.65000  -.170528
   1.61000   3.19000   4.80000  -.165384
   1.91000   3.19000   5.10000  -.144882
   2.21000   3.19000   5.40000  -.119954
   2.51000   3.19000   5.70000  -.096218
   1.00000   3.41000   4.41000  -.120917
   1.15000   3.41000   4.56000  -.155387
   1.30000   3.41000   4.71000  -.169558
   1.45000   3.41000   4.86000  -.171695
   1.60000   3.41000   5.01000  -.166664
   1.90000   3.41000   5.31000  -.145905
   2.20000   3.41000   5.61000  -.120287
   2.50000   3.41000   5.91000  -.095451
    .99000   3.64000   4.63000  -.118817
   1.14000   3.64000   4.78000  -.154938
   1.29000   3.64000   4.93000  -.170017
   1.44000   3.64000   5.08000  -.172630
   1.59000   3.64000   5.23000  -.167810
   1.89000   3.64000   5.53000  -.147015
   2.19000   3.64000   5.83000  -.120999
   2.49000   3.64000   6.13000  -.095490
    .98000   3.87000   4.85000  -.116194
   1.13000   3.87000   5.00000  -.154078
   1.28000   3.87000   5.15000  -.170151
   1.43000   3.87000   5.30000  -.173317
   1.58000   3.87000   5.45000  -.168783
   1.88000   3.87000   5.75000  -.148109
   2.18000   3.87000   6.05000  -.121891
   2.48000   3.87000   6.35000  -.095985
    .97000   4.15000   5.12000  -.113237
   1.12000   4.15000   5.27000  -.152974
   1.27000   4.15000   5.42000  -.170104
   1.42000   4.15000   5.57000  -.173872
   1.57000   4.15000   5.72000  -.169663
   1.87000   4.15000   6.02000  -.149190
   2.17000   4.15000   6.32000  -.122863
   2.47000   4.15000   6.62000  -.096685
    .96000   4.33000   5.29000  -.109726
   1.11000   4.33000   5.44000  -.151425
   1.26000   4.33000   5.59000  -.169690
   1.41000   4.33000   5.74000  -.174122
   1.56000   4.33000   5.89000  -.170298
   1.86000   4.33000   6.19000  -.150135
   2.16000   4.33000   6.49000  -.123815
   2.46000   4.33000   6.79000  -.097503
   1.65000   1.65000   3.30000  -.157224
   1.75700   1.75700   3.51400  -.159293
   1.85000   1.85000   3.70000  -.158036
   1.41400   3.17110   4.58510  -.170846
   1.41000   3.37110   4.78110  -.171873
   1.40700   3.57110   4.97810  -.172666
   1.03000   1.48000   2.51000  -.064867
   1.16000   1.56000   2.72000  -.108979
   1.05000   1.82000   2.87000  -.099654
    .91000   1.77000   2.68000  -.039771
    .96000   2.08000   3.04000  -.080883
    .92000   2.41000   3.33000  -.074579
    .89000   2.69000   3.58000  -.065961
    .87000   2.98000   3.85000  -.059446
    .85000   3.41000   4.26000  -.051486
    .83000   3.87000   4.70000  -.040494
    .81000   4.33000   5.14000  -.027106
   1.75700   1.75700   3.51186  -.159253
   1.75700   1.75700   3.50544  -.159143
   1.17000   1.17000   2.26027  -.049173
   1.37000   1.37000   2.64664  -.119504
   1.57000   1.57000   3.03301  -.149633
   1.67000   1.67000   3.22619  -.155424
   1.77000   1.77000   3.41938  -.157032
   1.87000   1.87000   3.61256  -.155504
   1.97000   1.97000   3.80575  -.151643
   2.17000   2.17000   4.19212  -.139315
   2.47000   2.47000   4.77167  -.115221
   2.67000   2.67000   5.15804  -.098296
   1.00000   1.40000   2.32053  -.039378
   1.10000   1.56000   2.57212  -.091506
   1.24500   1.65000   2.79832  -.127472
   1.38000   1.74000   3.01513  -.146280
   1.51500   1.83000   3.23205  -.155301
   1.65000   1.92000   3.44906  -.157676
   1.78500   2.01000   3.66615  -.155531
   1.92000   2.10000   3.88330  -.150353
    .97000   2.01000   2.89102  -.079780
   1.25000   2.09000   3.23351  -.147017
   1.39000   2.13000   3.40545  -.157608
   1.53000   2.17000   3.57776  -.160280
   1.67000   2.21000   3.75040  -.158029
   1.81000   2.25000   3.92331  -.152778
   2.09000   2.33000   4.26984  -.137986
    .90000   2.64000   3.44891  -.069295
   1.08000   2.66000   3.63563  -.133720
   1.26000   2.68000   3.82345  -.160088
   1.44000   2.70000   4.01221  -.166415
   1.62000   2.72000   4.20177  -.161993
   1.80000   2.74000   4.39205  -.151990
   2.16000   2.78000   4.77437  -.125978
   2.52000   2.82000   5.15863  -.101009
    .90000   3.40000   4.20358  -.079548
   1.10000   3.40000   4.38724  -.146421
   1.25000   3.40000   4.52589  -.166159
   1.40000   3.40000   4.66525  -.171619
   1.55000   3.40000   4.80525  -.168568
   1.80000   3.40000   5.03986  -.153421
   2.00000   3.40000   5.22857  -.137180
   3.00000   3.40000   6.18279  -.062339
   1.20000   1.20000   2.07846  -.049667
   1.40000   1.40000   2.42487  -.113943
   1.60000   1.60000   2.77128  -.141703
   1.70000   1.70000   2.94449  -.147084
   1.80000   1.80000   3.11769  -.148591
   1.90000   1.90000   3.29090  -.147180
   2.00000   2.00000   3.46410  -.143591
   2.20000   2.20000   3.81051  -.132028
   2.50000   2.50000   4.33013  -.109307
   1.00000   1.40000   2.08806  -.027042
   1.14220   1.66000   2.44055  -.099575
   1.27580   1.74000   2.62205  -.126782
   1.40940   1.82000   2.80427  -.141813
   1.54300   1.90000   2.98706  -.148679
   1.60980   1.94000   3.07865  -.149907
   1.67660   1.98000   3.17034  -.150006
   1.74340   2.02000   3.26213  -.149174
   1.94380   2.14000   3.53803  -.142633
   1.03200   1.88000   2.55726  -.087035
   1.16400   1.94000   2.71600  -.121895
   1.29600   2.00000   2.87604  -.141152
   1.42800   2.06000   3.03718  -.150316
   1.56000   2.12000   3.19925  -.152866
   1.69200   2.18000   3.36212  -.151076
   1.82400   2.24000   3.52567  -.146473
   2.08800   2.36000   3.85448  -.132629
    .91000   2.14000   2.71203  -.052932
   1.07000   2.18000   2.86878  -.113299
   1.23000   2.22000   3.02851  -.142596
   1.39000   2.26000   3.19078  -.154258
   1.55000   2.30000   3.35522  -.155760
   1.71000   2.34000   3.52152  -.151429
   1.87000   2.38000   3.68943  -.143913
   2.19000   2.46000   4.02928  -.125299
    .91000   2.74000   3.29076  -.073671
   1.09000   2.76000   3.43716  -.134769
   1.27000   2.78000   3.58774  -.159222
   1.45000   2.80000   3.74199  -.164342
   1.63000   2.82000   3.89947  -.159128
   1.81000   2.84000   4.05982  -.148530
   2.17000   2.88000   4.38781  -.121667
   2.53000   2.92000   4.72386  -.095931
    .90000   3.40000   3.92810  -.078461
   1.10000   3.40000   4.06325  -.145207
   1.25000   3.40000   4.16803  -.164886
   1.40000   3.40000   4.27551  -.170295
   1.55000   3.40000   4.38549  -.167202
   1.80000   3.40000   4.57384  -.152020
   2.00000   3.40000   4.72864  -.135784
   3.00000   3.40000   5.54617  -.061322
   1.50000   1.50000   2.12132  -.104424
   1.70000   1.70000   2.40416  -.123574
   1.80000   1.80000   2.54558  -.126821
   1.90000   1.90000   2.68701  -.127150
   2.00000   2.00000   2.82843  -.125261
   2.10000   2.10000   2.96985  -.121720
   2.30000   2.30000   3.25269  -.111291
   2.50000   2.50000   3.53553  -.098407
   1.20000   1.40000   1.84391  -.056318
   1.58000   1.78000   2.38008  -.123573
   1.72000   1.92000   2.57775  -.128528
   1.79000   1.99000   2.67660  -.128764
   1.86000   2.06000   2.77546  -.127859
   2.00000   2.20000   2.97321  -.123395
   2.14000   2.34000   3.17099  -.116454
   1.11000   1.78000   2.09774  -.082093
   1.45000   2.02000   2.48654  -.132193
   1.62000   2.14000   2.68403  -.135991
   1.79000   2.26000   2.88300  -.132853
   2.13000   2.50000   3.28434  -.115982
   1.46000   2.48000   2.87785  -.149523
   1.85400   2.54800   3.15113  -.133923
   2.44500   2.65000   3.60562  -.096869
    .90000   3.44000   3.55578  -.076332
   1.10000   3.44000   3.61159  -.143198
   1.25000   3.44000   3.66007  -.162183
   1.40000   3.44000   3.71397  -.167815
   1.55000   3.44000   3.77308  -.164105
   1.80000   3.44000   3.88247  -.149011
   2.00000   3.44000   3.97915  -.132539
   3.00000   3.44000   4.56438  -.057237
   2.30000   2.62500   3.49008  -.105250
   1.00000   2.40100   2.60092  -.092510
    .90000    .90000    .90000   .342584
   1.25000   1.25000   1.25000   .032571
   1.60000   1.60000   1.60000  -.056313
   1.90000   1.90000   1.90000  -.074010
   2.00000   2.00000   2.00000  -.074501
   2.10000   2.10000   2.10000  -.073400
   2.50000   2.50000   2.50000  -.060287
    .60000    .80000   1.40000   .593580
    .60000   1.75000   2.35000   .294257
    .60000   2.10000   2.70000   .268052
    .60000   3.40000   4.00000   .234879
    .60000    .80000   1.31402   .602586
    .60000   1.00000   1.51574   .467071
    .60000   1.40000   1.91743   .345679
    .60000   1.75000   2.26814   .297368
    .60000   2.10000   2.61855   .270010
    .60000   2.60000   3.11889   .248760
    .60000   3.40000   3.91918   .235163
    .60000    .80000   1.08811   .639758
    .60000   1.00000   1.29205   .491017
    .60000   1.40000   1.69570   .360147
    .60000   1.75000   2.04716   .306758
    .60000   2.10000   2.39798   .276133
    .60000   2.60000   2.89865   .251943
    .60000   3.40000   3.69919   .236195
    .60000    .80000    .80000   .761954
    .60000   1.40000   1.40000   .388481
    .60000   1.75000   1.75000   .323524
    .60000   2.10000   2.10000   .286566
    .60000   2.60000   2.60000   .257232
    .60000   3.40000   3.40000   .237882
    .80000   1.00000   1.80000   .189865
    .80000   1.20000   2.00000   .118973
    .80000   1.90000   2.70000   .024175
    .80000   2.10000   2.90000   .012779
    .80000   2.35000   3.15000   .002466
    .80000    .80000   1.58631   .321999
    .80000   1.00000   1.78479   .190905
    .80000   1.40000   2.18258   .077735
    .80000   1.75000   2.53122   .035983
    .80000   2.10000   2.88019   .013161
    .80000   2.60000   3.37909  -.004505
    .80000    .80000   1.54548   .325350
    .80000   1.00000   1.73944   .194089
    .80000   1.20000   1.93462   .122954
    .80000   1.40000   2.13070   .080353
    .80000   1.60000   2.32745   .052759
    .80000   1.75000   2.47535   .037837
    .80000   1.90000   2.62349   .026293
    .80000   2.10000   2.82132   .014470
    .80000   2.35000   3.06900   .003768
    .80000   3.00000   3.71442  -.011567
    .80000   4.00000   4.70984  -.018729
    .80000    .80000   1.47821   .331266
    .80000   1.00000   1.66474   .199722
    .80000   1.40000   2.04546   .084905
    .80000   1.75000   2.38378   .041053
    .80000   2.10000   2.72505   .016675
    .80000   2.60000   3.21583  -.002631
    .80000    .80000   1.38564   .340628
    .80000   1.00000   1.56205   .208351
    .80000   1.20000   1.74356   .135900
    .80000   1.40000   1.92873   .091720
    .80000   1.60000   2.11660   .062287
    .80000   1.75000   2.25887   .046087
    .80000   1.90000   2.40208   .033171
    .80000   2.35000   2.83593   .007936
    .80000   3.00000   3.46987  -.009740
    .80000   4.00000   4.45421  -.018296
    .80000    .80000   1.26937   .355725
    .80000   1.00000   1.43322   .221312
    .80000   1.40000   1.78319   .101354
    .80000   1.75000   2.10409   .052948
    .80000   2.10000   2.43303   .024677
    .80000   2.60000   2.91148   .001736
    .80000    .80000   1.13137   .382257
    .80000   1.00000   1.28062   .242008
    .80000   1.20000   1.44222   .163863
    .80000   1.40000   1.61245   .114910
    .80000   1.75000   1.92419   .062254
    .80000   2.10000   2.24722   .030807
    .80000   2.60000   2.72029   .005016
    .80000   3.00000   3.10483  -.006274
    .80000   4.00000   4.07922  -.017518
    .80000    .80000    .97980   .428852
    .80000   1.00000   1.14891   .267898
    .80000   1.00000   1.00000   .312428
    .80000   1.20000   1.20000   .200922
    .80000   1.75000   1.75000   .072916
    .80000   1.90000   1.90000   .054989
    .80000   2.10000   2.10000   .036327
    .80000   2.35000   2.35000   .019414
    .80000   2.60000   2.60000   .007366
    .80000   3.00000   3.00000  -.005118
    .80000   4.00000   4.00000  -.017338
   1.00000   1.00000   2.00000   .062010
   1.00000   1.20000   2.20000  -.004930
   1.00000   1.00000   1.98289   .063089
   1.00000   1.20000   2.18133  -.003866
   1.00000   1.40000   2.38004  -.041974
   1.00000   1.60000   2.57895  -.065560
   1.00000   1.75000   2.72823  -.077744
   1.00000   1.90000   2.87759  -.087079
   1.00000   2.10000   3.07683  -.096439
   1.00000   2.35000   3.32601  -.105015
   1.00000   2.60000   3.57531  -.111072
   1.00000   1.00000   1.93185   .066366
   1.00000   1.20000   2.12567  -.000721
   1.00000   1.75000   2.66338  -.075740
   1.00000   2.35000   3.25466  -.103987
   1.00000   3.00000   3.89822  -.116961
   1.00000   4.00000   4.89165  -.123368
   1.00000   1.00000   1.84776   .072104
   1.00000   1.20000   2.03398   .004748
   1.00000   1.40000   2.22259  -.034342
   1.00000   1.60000   2.41304  -.059028
   1.00000   1.75000   2.55683  -.072121
   1.00000   1.90000   2.70130  -.082255
   1.00000   2.10000   2.89480  -.092557
   1.00000   2.35000   3.13782  -.102163
   1.00000   2.60000   3.38186  -.108998
   1.00000   1.00000   1.73205   .080830
   1.00000   1.20000   1.90788   .013030
   1.00000   1.60000   2.27156  -.052705
   1.00000   2.35000   2.97867  -.099335
   1.00000   3.00000   3.60555  -.115029
   1.00000   4.00000   4.58258  -.122981
   1.00000   1.00000   1.58671   .093710
   1.00000   1.20000   1.74962   .025168
   1.00000   1.40000   1.91956  -.016107
   1.00000   1.60000   2.09481  -.043556
   1.00000   1.75000   2.22898  -.058777
   1.00000   1.90000   2.36506  -.070932
   1.00000   2.10000   2.54893  -.083590
   1.00000   2.35000   2.78190  -.095419
   1.00000   2.60000   3.01759  -.104054
   1.00000   1.00000   1.41421   .113419
   1.00000   1.20000   1.56205   .042992
   1.00000   1.40000   1.72047  -.000850
   1.00000   1.60000   1.88680  -.030885
   1.00000   1.90000   2.14709  -.061796
   1.00000   2.10000   2.32594  -.076440
   1.00000   3.00000   3.16228  -.111028
   1.00000   4.00000   4.12311  -.121997
   1.00000   1.00000   1.22475   .145193
   1.00000   1.20000   1.39284   .063941
   1.00000   1.40000   1.56844   .013239
   1.00000   1.00000   1.00000   .212316
   1.00000   1.20000   1.20000   .097433
   1.00000   1.40000   1.40000   .032223
   1.00000   1.60000   1.60000  -.009441
   1.00000   1.75000   1.75000  -.031991
   1.00000   1.90000   1.90000  -.049759
   1.00000   2.10000   2.10000  -.068121
   1.00000   2.35000   2.35000  -.084791
   1.00000   2.60000   2.60000  -.096671
   1.00000   3.00000   3.00000  -.109209
   1.00000   3.40000   3.40000  -.116407
   1.00000   4.00000   4.00000  -.121655
   1.20000   1.40000   2.60000  -.100626
   1.20000   1.20000   2.37947  -.066185
   1.20000   1.40000   2.57789  -.099732
   1.20000   1.60000   2.77654  -.119075
   1.20000   1.75000   2.92564  -.128549
   1.20000   1.90000   3.07484  -.135622
   1.20000   2.10000   3.27388  -.142631
   1.20000   2.35000   3.52283  -.149056
   1.20000   2.60000   3.77192  -.153770
   1.20000   1.40000   2.51194  -.096988
   1.20000   1.20000   2.21731  -.057825
   1.20000   1.40000   2.40331  -.092050
   1.20000   1.60000   2.59139  -.112432
   1.20000   1.75000   2.73356  -.122751
   1.20000   1.90000   2.87653  -.130559
   1.20000   2.10000   3.06819  -.138562
   1.20000   2.35000   3.30917  -.146039
   1.20000   2.60000   3.55139  -.151552
   1.20000   1.40000   2.25389  -.084385
   1.20000   1.20000   1.90405  -.037233
   1.20000   1.40000   2.06631  -.072871
   1.20000   1.60000   2.23470  -.095736
   1.20000   1.75000   2.36422  -.108188
   1.20000   1.90000   2.49604  -.118150
   1.20000   2.10000   2.67478  -.128661
   1.20000   2.35000   2.90211  -.138708
   1.20000   2.60000   3.13290  -.146190
   1.20000   2.10000   2.41868  -.120461
   1.20000   2.60000   2.86356  -.141803
   1.20000   1.20000   1.46969   .007390
   1.20000   1.40000   1.63707  -.036786
   1.20000   1.60000   1.81108  -.067743
   1.20000   1.75000   1.94487  -.085448
   1.20000   1.40000   1.40000  -.008933
   1.20000   1.60000   1.60000  -.050657
   1.20000   1.75000   1.75000  -.073045
   1.20000   1.90000   1.90000  -.090574
   1.20000   2.10000   2.10000  -.108642
   1.20000   2.35000   2.35000  -.125090
   1.20000   2.60000   2.60000  -.136841
   1.40000   1.40000   2.77605  -.128521
   1.40000   1.60000   2.97445  -.143372
   1.40000   1.75000   3.12339  -.149947
   1.40000   1.90000   3.27242  -.154481
   1.40000   2.10000   3.47126  -.158764
   1.40000   2.35000   3.71999  -.162760
   1.40000   2.60000   3.96887  -.165962
   1.40000   1.60000   2.89824  -.141091
   1.40000   3.00000   4.27020  -.169178
   1.40000   4.00000   5.25923  -.173644
   1.40000   1.40000   2.58686  -.121259
   1.40000   1.60000   2.77270  -.136955
   1.40000   1.75000   2.91330  -.144172
   1.40000   1.90000   3.05480  -.149401
   1.40000   2.10000   3.24466  -.154644
   1.40000   2.35000   3.48357  -.159654
   1.40000   2.60000   3.72394  -.163650
   1.40000   1.60000   2.60000  -.130235
   1.40000   4.00000   4.85387  -.173101
   1.40000   1.40000   2.22139  -.102539
   1.40000   1.60000   2.38317  -.119914
   1.40000   1.75000   2.50813  -.129043
   1.40000   1.90000   2.63570  -.136221
   1.40000   2.10000   2.80924  -.144029
   1.40000   2.35000   3.03076  -.151756
   1.40000   2.60000   3.25641  -.157793
   1.40000   1.40000   1.97990  -.085662
   1.40000   1.60000   2.12603  -.104447
   1.40000   1.75000   2.24109  -.115333
   1.40000   3.00000   3.31059  -.161879
   1.40000   4.00000   4.23792  -.171940
   1.40000   1.40000   1.71464  -.061318
   1.40000   1.60000   1.88149  -.085935
   1.40000   1.75000   2.01060  -.100977
   1.40000   1.90000   2.14243  -.113552
   1.40000   2.10000   2.32164  -.127169
   1.40000   1.75000   1.75000  -.083384
   1.40000   3.40000   3.40000  -.165706
   1.40000   4.00000   4.00000  -.171256
   1.60000   1.60000   3.17262  -.153886
   1.60000   1.75000   3.32140  -.157433
   1.60000   1.90000   3.47028  -.159231
   1.60000   2.10000   3.66893  -.160442
   1.60000   2.35000   3.91743  -.161653
   1.60000   2.60000   4.16611  -.162973
   1.60000   1.60000   2.95641  -.147883
   1.60000   1.75000   3.09553  -.151948
   1.60000   1.90000   3.23562  -.154345
   1.60000   2.10000   3.42371  -.156406
   1.60000   2.35000   3.66059  -.158601
   1.60000   2.60000   3.89912  -.160660
   1.60000   1.75000   2.90215  -.146180
   1.60000   1.60000   2.53873  -.131688
   1.60000   1.75000   2.65930  -.137009
   1.60000   1.90000   2.78274  -.140987
   1.60000   2.10000   2.95115  -.145378
   1.60000   2.35000   3.16683  -.150247
   1.60000   2.60000   3.38724  -.154498
   1.60000   2.60000   3.05287  -.149022
   1.60000   1.60000   1.95959  -.093813
   1.60000   1.75000   2.08387  -.103993
   1.60000   1.90000   2.21133  -.113535
   1.60000   2.10000   2.38537  -.124812
   1.60000   2.35000   2.60816  -.136200
   1.60000   1.75000   1.75000  -.078142
   1.60000   1.90000   1.90000  -.095333
   1.60000   2.10000   2.10000  -.112909
   1.60000   2.35000   2.35000  -.128889
   1.60000   2.60000   2.60000  -.140296
   1.75000   3.00000   4.75000  -.156545
   1.75000   4.00000   5.75000  -.158597
   1.75000   1.75000   3.47006  -.158731
   1.75000   1.90000   3.61883  -.158365
   1.75000   2.10000   3.81734  -.157219
   1.75000   2.35000   4.06568  -.155997
   1.75000   2.60000   4.31421  -.155764
   1.75000   3.00000   4.59954  -.155916
   1.75000   4.00000   5.58452  -.158411
   1.75000   1.75000   3.23358  -.153622
   1.75000   1.90000   3.37265  -.153768
   1.75000   2.10000   3.55946  -.153302
   1.75000   2.35000   3.79486  -.153021
   1.75000   2.60000   4.03202  -.153455
   1.75000   2.60000   3.79111  -.150981
   1.75000   3.00000   4.16083  -.153534
   1.75000   4.00000   5.10514  -.157805
   1.75000   1.75000   2.77674  -.139385
   1.75000   1.90000   2.89718  -.140750
   1.75000   2.10000   3.06183  -.142254
   1.75000   2.35000   3.27319  -.144543
   1.75000   2.60000   3.48966  -.147174
   1.75000   3.00000   3.47311  -.147797
   1.75000   4.00000   4.36606  -.156359
   1.75000   1.75000   2.14330  -.104384
   1.75000   1.90000   2.26743  -.110322
   1.75000   2.10000   2.43747  -.118746
   1.75000   2.35000   2.65589  -.128392
   1.75000   2.60000   2.87945  -.136262
   1.75000   1.75000   1.75000  -.068697
   1.75000   1.90000   1.90000  -.085836
   1.75000   2.10000   2.10000  -.103316
   1.75000   2.35000   2.35000  -.119213
   1.75000   2.60000   2.60000  -.130521
   1.75000   3.00000   3.00000  -.142484
   1.75000   3.40000   3.40000  -.149648
   1.75000   4.00000   4.00000  -.155357
   1.90000   1.90000   3.76749  -.156009
   1.90000   2.10000   3.96587  -.152284
   1.90000   2.35000   4.21405  -.148525
   1.90000   2.60000   4.46244  -.146468
   1.90000   1.90000   3.51074  -.151771
   1.90000   2.10000   3.69631  -.148661
   1.90000   2.35000   3.93026  -.145694
   1.90000   2.60000   4.16608  -.144279
   1.90000   1.90000   3.01474  -.139461
   1.90000   2.10000   3.17575  -.137889
   1.90000   2.35000   3.38286  -.137177
   1.90000   2.60000   3.59543  -.137886
   1.90000   1.90000   2.32702  -.107536
   1.90000   2.10000   2.49299  -.111791
   1.90000   2.35000   2.70694  -.118821
   1.90000   2.60000   2.92660  -.125505
   1.90000   2.35000   2.35000  -.107141
   1.90000   2.60000   2.60000  -.118430
   2.10000   2.10000   4.16407  -.145264
   2.10000   2.35000   4.41205  -.137910
   2.10000   2.60000   4.66025  -.133085
   2.10000   4.00000   5.91263  -.128986
   2.10000   2.10000   3.88029  -.142029
   2.10000   2.35000   4.11238  -.135335
   2.10000   2.60000   4.34645  -.131060
   2.10000   4.00000   5.36750  -.128396
   2.10000   2.10000   3.33208  -.132141
   2.10000   2.35000   3.53370  -.127111
   2.10000   2.60000   3.74116  -.124708
   2.10000   3.00000   3.66197  -.120548
   2.10000   4.00000   4.51774  -.126825
   2.10000   2.10000   2.57196  -.104503
   2.10000   2.35000   2.77984  -.105975
   2.10000   2.60000   2.99416  -.110128
   2.10000   2.35000   2.35000  -.089216
   2.10000   2.60000   2.60000  -.100535
   2.10000   3.00000   3.00000  -.112461
   2.10000   3.40000   3.40000  -.119608
   2.10000   4.00000   4.00000  -.125400
   2.35000   2.35000   4.65979  -.126050
   2.35000   2.60000   4.90776  -.117370
   2.35000   2.35000   4.34223  -.123799
   2.35000   2.60000   4.57420  -.115589
   2.35000   2.35000   3.72876  -.116470
   2.35000   2.60000   3.93005  -.109619
   2.35000   2.35000   2.87815  -.093980
   2.35000   2.60000   3.08565  -.092506
   2.35000   2.60000   2.60000  -.077647
   2.60000   2.60000   5.15551  -.104754
   2.60000   3.40000   5.79925  -.087691
   2.60000   4.00000   6.38540  -.086138
   2.60000   2.60000   4.80417  -.103213
   2.60000   3.40000   5.21153  -.086473
   2.60000   4.00000   5.75847  -.085618
   2.60000   2.60000   4.12544  -.097974
   2.60000   3.00000   3.96989  -.083656
   2.60000   3.40000   4.28019  -.082599
   2.60000   4.00000   4.77074  -.083926
   2.60000   2.60000   3.18434  -.080141
   2.60000   3.00000   3.00000  -.068361
   2.60000   3.40000   3.40000  -.075738
   2.60000   4.00000   4.00000  -.081702
   3.00000   3.40000   6.40000  -.062596
   3.00000   4.00000   7.00000  -.058289
   3.00000   4.00000   6.76643  -.058218
   3.00000   4.00000   6.08276  -.057733
   3.00000   4.00000   5.00000  -.056124
   3.00000   3.40000   3.40000  -.046907
   3.00000   4.00000   4.00000  -.052971
   3.40000   3.40000   6.80000  -.046660
   3.40000   4.00000   7.40000  -.038038
   3.40000   3.40000   6.56830  -.046539
   3.40000   4.00000   7.14954  -.037917
   3.40000   3.40000   5.88897  -.045854
   3.40000   4.00000   6.41561  -.037613
   3.40000   3.40000   4.80833  -.042749
   3.40000   4.00000   5.24976  -.036149
   3.40000   3.40000   3.40000  -.025485
   3.40000   4.00000   4.00000  -.031634
   1.20000   2.37697   2.37697  -.126342
   1.40000   2.21359   2.21359  -.126390
   1.60000   2.24722   2.24722  -.122877
   1.80000   2.37697   2.37697  -.116768
   2.00000   2.50799   2.50799  -.105900
   2.00000   2.69258   2.69258  -.112956
   1.20000   2.27392   2.47574  -.126452
   1.40000   2.09511   2.32605  -.127058
   1.60000   2.11342   2.37349  -.124454
   1.80000   2.22763   2.51747  -.119205
   2.00000   2.52621   2.84925  -.114965
   1.20000   1.97689   2.37316  -.115209
   1.40000   1.97344   2.43013  -.128838
   1.60000   1.97505   2.48982  -.128529
   2.00000   2.17180   2.80416  -.118073
   1.20000   1.87350   2.45561  -.115714
   1.40000   1.85203   2.52389  -.131111
   1.60000   1.83576   2.59422  -.133717
   1.80000   1.82483   2.66646  -.131858
   1.81934   2.00000   2.74044  -.129877
   1.81934   2.20000   2.81603  -.129341
   1.40000   1.64018   2.50795  -.127103
   1.60000   1.60720   2.58784  -.134124
   1.42435   1.60000   2.39400  -.121444
   1.40263   1.80000   2.47642  -.128352
   1.20000   1.78259   2.68744  -.122051
   1.40000   1.53136   2.57583  -.127262
   1.29375   1.60000   2.46702  -.117584
   1.25220   1.80000   2.55577  -.123429
   1.21747   2.00000   2.64533  -.127556
   1.20000   1.70695   2.73611  -.121569
   1.40000   1.43706   2.62961  -.125384
   1.36701   1.60000   2.72237  -.133464
   1.20756   1.80000   2.71695  -.124472
   1.14852   2.00000   2.81085  -.123395
   1.20000   1.64900   2.77142  -.120818
   1.36340   1.40000   2.66855  -.122058
   1.27788   1.60000   2.76532  -.128086
   1.19462   1.80000   2.86232  -.127311
   1.11410   2.00000   2.95952  -.121094
   1.20000   1.61248   2.79283  -.120116
   1.40000   1.41586   2.79201  -.130182
   1.31949   1.60000   2.89119  -.135858
   1.22369   1.80000   2.99041  -.134237
   1.12863   2.00000   3.08969  -.126745
   1.20000   1.60000   2.80000  -.119845
   1.30000   1.60000   2.90000  -.134474
   1.20000   1.80000   3.00000  -.131771
   1.10000   2.00000   3.10000  -.121352
   1.17624   1.17624   1.40111   .025141
   1.40111   1.58098   1.58098  -.057841
   1.40111   2.01540   2.01540  -.111588
   1.40111   2.46385   2.46385  -.140431
   1.40111   2.91988   2.91988  -.156497
   1.88973   2.11278   2.11278  -.093086
   1.41730   1.41729   1.41729  -.023828
   2.36216   2.36216   2.36216  -.065640
   2.83459   2.83459   2.83459  -.045892
    .60000   1.00000   1.00000   .556733
    .60000   1.00000   1.41747   .476169
    .60000   1.00000   1.60000   .460177
    .80000    .80000    .80000   .526467
    .80000    .80000   1.60000   .320915
    .60000   1.40000   2.00000   .341006
    .60000   2.60000   3.20000   .247745
    .80000   1.50000   2.30000   .062060
    .80000   1.50000   1.50000   .114430
    .70000    .70000   1.40000   .540368
    .90000    .90000   1.80000   .168990
   1.20000   1.20000   2.40000  -.067222
   1.40000   1.40000   2.80000  -.129432
   1.20000   1.20000   1.20000   .057317
   1.30000   1.30000   1.40000  -.006077
   1.60000   1.60000   1.75000  -.073675
   2.40000   2.40000   2.60000  -.075966
772 5  0.156189 1.5000 1.247447  0.d0
   1.73700   1.77700   3.51400  -.159305
   1.75700   1.75700   3.50961  -.159212
   1.09000   2.84500   3.93500  -.139682
   1.09000   2.88390   3.90658  -.139747
   1.09000   2.99308   3.82358  -.139878
   1.09000   3.15303   3.69279  -.140025
   1.09000   3.33878   3.52573  -.140108
   1.40000   2.69000   4.09000  -.167118
   1.40000   2.74268   4.05486  -.167023
   1.40000   2.88902   3.95193  -.166786
   1.40000   3.09985   3.78881  -.166582
   1.40000   3.34035   3.57858  -.166503
   2.04000   2.37000   4.41000  -.141022
   2.04000   2.45641   4.36246  -.138488
   2.04000   2.68977   4.22258  -.133142
   2.04000   3.01242   3.99879  -.128932
   1.10000   2.64568   3.63307  -.137682
   2.06000   2.24783   4.08202  -.140628
    .95000   2.55000   3.50000  -.091592
   1.00000   2.55000   3.55000  -.110332
   1.02500   2.55000   3.57500  -.118224
   1.05000   2.55000   3.60000  -.125275
   1.10000   2.55000   3.65000  -.137070
   1.15000   2.55000   3.70000  -.146259
   1.21000   2.55000   3.76000  -.154428
   1.36000   2.55000   3.91000  -.164720
   1.51000   2.55000   4.06000  -.165712
   1.66000   2.55000   4.21000  -.160533
   1.81000   2.55000   4.36000  -.152582
   1.96000   2.55000   4.51000  -.143195
   2.11000   2.55000   4.66000  -.133484
   2.26000   2.55000   4.81000  -.124199
   2.46000   2.55000   5.01000  -.113379
   1.10000   1.10000   2.20000  -.013786
   1.30000   1.30000   2.60000  -.104420
   1.50000   1.50000   3.00000  -.145412
   1.60000   1.60000   3.20000  -.154609
   1.70000   1.70000   3.40000  -.158719
   1.75000   1.75000   3.50000  -.159276
   1.80000   1.80000   3.60000  -.159012
   1.90000   1.90000   3.80000  -.156457
   2.10000   2.10000   4.20000  -.145622
   2.30000   2.30000   4.60000  -.130437
   2.50000   2.50000   5.00000  -.113496
   2.70000   2.70000   5.40000  -.096405
   3.00000   3.00000   6.00000  -.072582
   4.00000   4.00000   8.00000  -.021478
   5.00000   5.00000  10.00000  -.004985
   1.29000   1.64000   2.93000  -.135746
   1.42000   1.72000   3.14000  -.150838
   1.55000   1.80000   3.35000  -.157948
   1.68000   1.88000   3.56000  -.159552
   1.81000   1.96000   3.77000  -.157358
   1.94000   2.04000   3.98000  -.152560
   1.22000   1.74000   2.96000  -.131914
   1.36000   1.81000   3.17000  -.150039
   1.50000   1.88000   3.38000  -.158235
   1.64000   1.95000   3.59000  -.159948
   2.06000   2.16000   4.22000  -.145199
   1.88000   2.02000   3.90000  -.154742
   1.19000   1.87000   3.06000  -.133442
   1.33000   1.92000   3.25000  -.151274
   1.47000   1.97000   3.44000  -.159048
   1.61000   2.02000   3.63000  -.160438
   1.75000   2.07000   3.82000  -.157802
   2.03000   2.17000   4.20000  -.146124
   1.16000   1.99000   3.15000  -.133216
   1.30000   2.03000   3.33000  -.151965
   1.44000   2.07000   3.51000  -.159939
   1.58000   2.11000   3.69000  -.161173
   1.72000   2.15000   3.87000  -.158235
   2.00000   2.23000   4.23000  -.145951
   1.11000   2.11000   3.22000  -.127765
   1.26000   2.14000   3.40000  -.151200
   1.41000   2.17000   3.58000  -.160727
   1.56000   2.20000   3.76000  -.161954
   1.71000   2.23000   3.94000  -.158300
   2.01000   2.29000   4.30000  -.144172
   1.09000   2.24000   3.33000  -.127400
   1.24000   2.26000   3.50000  -.151997
   1.39000   2.28000   3.67000  -.161832
   1.54000   2.30000   3.84000  -.162916
   1.69000   2.32000   4.01000  -.158896
   1.99000   2.36000   4.35000  -.143874
   2.29000   2.40000   4.69000  -.127072
   1.07000   2.41000   3.48000  -.127130
   1.22000   2.41000   3.63000  -.152937
   1.37000   2.41000   3.78000  -.163088
   1.52000   2.41000   3.93000  -.164047
   1.67000   2.41000   4.08000  -.159723
   1.97000   2.41000   4.38000  -.144199
   2.27000   2.41000   4.68000  -.127713
   1.06000   2.55000   3.61000  -.127696
   1.21000   2.55000   3.76000  -.154293
   1.36000   2.55000   3.91000  -.164606
   1.51000   2.55000   4.06000  -.165314
   1.66000   2.55000   4.21000  -.160441
   1.96000   2.55000   4.51000  -.143134
   2.26000   2.55000   4.81000  -.124146
   1.04000   2.69000   3.73000  -.124996
   1.19000   2.69000   3.88000  -.154054
   1.34000   2.69000   4.03000  -.165582
   1.49000   2.69000   4.18000  -.166747
   1.64000   2.69000   4.33000  -.161829
   1.94000   2.69000   4.63000  -.143436
   2.24000   2.69000   4.93000  -.122390
   1.03000   2.84000   3.87000  -.124510
   1.18000   2.84000   4.02000  -.154740
   1.33000   2.84000   4.17000  -.166773
   1.48000   2.84000   4.32000  -.168032
   1.63000   2.84000   4.47000  -.162927
   1.93000   2.84000   4.77000  -.143565
   2.23000   2.84000   5.07000  -.120881
   2.53000   2.84000   5.37000  -.100526
   1.02000   2.98000   4.00000  -.123379
   1.17000   2.98000   4.15000  -.154948
   1.32000   2.98000   4.30000  -.167639
   1.47000   2.98000   4.45000  -.169145
   1.62000   2.98000   4.60000  -.164022
   1.92000   2.98000   4.90000  -.144093
   2.22000   2.98000   5.20000  -.120291
   2.52000   2.98000   5.50000  -.098268
   1.01000   3.19000   4.20000  -.122457
   1.16000   3.19000   4.35000  -.155402
   1.31000   3.19000   4.50000  -.168769
   1.46000   3.19000   4.65000  -.170528
   1.61000   3.19000   4.80000  -.165384
   1.91000   3.19000   5.10000  -.144882
   2.21000   3.19000   5.40000  -.119954
   2.51000   3.19000   5.70000  -.096218
   1.00000   3.41000   4.41000  -.120917
   1.15000   3.41000   4.56000  -.155387
   1.30000   3.41000   4.71000  -.169558
   1.45000   3.41000   4.86000  -.171695
   1.60000   3.41000   5.01000  -.166664
   1.90000   3.41000   5.31000  -.145905
   2.20000   3.41000   5.61000  -.120287
   2.50000   3.41000   5.91000  -.095451
    .99000   3.64000   4.63000  -.118817
   1.14000   3.64000   4.78000  -.154938
   1.29000   3.64000   4.93000  -.170017
   1.44000   3.64000   5.08000  -.172630
   1.59000   3.64000   5.23000  -.167810
   1.89000   3.64000   5.53000  -.147015
   2.19000   3.64000   5.83000  -.120999
   2.49000   3.64000   6.13000  -.095490
    .98000   3.87000   4.85000  -.116194
   1.13000   3.87000   5.00000  -.154078
   1.28000   3.87000   5.15000  -.170151
   1.43000   3.87000   5.30000  -.173317
   1.58000   3.87000   5.45000  -.168783
   1.88000   3.87000   5.75000  -.148109
   2.18000   3.87000   6.05000  -.121891
   2.48000   3.87000   6.35000  -.095985
    .97000   4.15000   5.12000  -.113237
   1.12000   4.15000   5.27000  -.152974
   1.27000   4.15000   5.42000  -.170104
   1.42000   4.15000   5.57000  -.173872
   1.57000   4.15000   5.72000  -.169663
   1.87000   4.15000   6.02000  -.149190
   2.17000   4.15000   6.32000  -.122863
   2.47000   4.15000   6.62000  -.096685
    .96000   4.33000   5.29000  -.109726
   1.11000   4.33000   5.44000  -.151425
   1.26000   4.33000   5.59000  -.169690
   1.41000   4.33000   5.74000  -.174122
   1.56000   4.33000   5.89000  -.170298
   1.86000   4.33000   6.19000  -.150135
   2.16000   4.33000   6.49000  -.123815
   2.46000   4.33000   6.79000  -.097503
   1.65000   1.65000   3.30000  -.157224
   1.75700   1.75700   3.51400  -.159293
   1.85000   1.85000   3.70000  -.158036
   1.41400   3.17110   4.58510  -.170846
   1.41000   3.37110   4.78110  -.171873
   1.40700   3.57110   4.97810  -.172666
   1.03000   1.48000   2.51000  -.064867
   1.16000   1.56000   2.72000  -.108979
   1.05000   1.82000   2.87000  -.099654
    .91000   1.77000   2.68000  -.039771
    .96000   2.08000   3.04000  -.080883
    .92000   2.41000   3.33000  -.074579
    .89000   2.69000   3.58000  -.065961
    .87000   2.98000   3.85000  -.059446
    .85000   3.41000   4.26000  -.051486
    .83000   3.87000   4.70000  -.040494
    .81000   4.33000   5.14000  -.027106
   1.75700   1.75700   3.51186  -.159253
   1.75700   1.75700   3.50544  -.159143
   1.17000   1.17000   2.26027  -.049173
   1.37000   1.37000   2.64664  -.119504
   1.57000   1.57000   3.03301  -.149633
   1.67000   1.67000   3.22619  -.155424
   1.77000   1.77000   3.41938  -.157032
   1.87000   1.87000   3.61256  -.155504
   1.97000   1.97000   3.80575  -.151643
   2.17000   2.17000   4.19212  -.139315
   2.47000   2.47000   4.77167  -.115221
   2.67000   2.67000   5.15804  -.098296
   1.00000   1.40000   2.32053  -.039378
   1.10000   1.56000   2.57212  -.091506
   1.24500   1.65000   2.79832  -.127472
   1.38000   1.74000   3.01513  -.146280
   1.51500   1.83000   3.23205  -.155301
   1.65000   1.92000   3.44906  -.157676
   1.78500   2.01000   3.66615  -.155531
   1.92000   2.10000   3.88330  -.150353
    .97000   2.01000   2.89102  -.079780
   1.25000   2.09000   3.23351  -.147017
   1.39000   2.13000   3.40545  -.157608
   1.53000   2.17000   3.57776  -.160280
   1.67000   2.21000   3.75040  -.158029
   1.81000   2.25000   3.92331  -.152778
   2.09000   2.33000   4.26984  -.137986
    .90000   2.64000   3.44891  -.069295
   1.08000   2.66000   3.63563  -.133720
   1.26000   2.68000   3.82345  -.160088
   1.44000   2.70000   4.01221  -.166415
   1.62000   2.72000   4.20177  -.161993
   1.80000   2.74000   4.39205  -.151990
   2.16000   2.78000   4.77437  -.125978
   2.52000   2.82000   5.15863  -.101009
    .90000   3.40000   4.20358  -.079548
   1.10000   3.40000   4.38724  -.146421
   1.25000   3.40000   4.52589  -.166159
   1.40000   3.40000   4.66525  -.171619
   1.55000   3.40000   4.80525  -.168568
   1.80000   3.40000   5.03986  -.153421
   2.00000   3.40000   5.22857  -.137180
   3.00000   3.40000   6.18279  -.062339
   1.20000   1.20000   2.07846  -.049667
   1.40000   1.40000   2.42487  -.113943
   1.60000   1.60000   2.77128  -.141703
   1.70000   1.70000   2.94449  -.147084
   1.80000   1.80000   3.11769  -.148591
   1.90000   1.90000   3.29090  -.147180
   2.00000   2.00000   3.46410  -.143591
   2.20000   2.20000   3.81051  -.132028
   2.50000   2.50000   4.33013  -.109307
   1.00000   1.40000   2.08806  -.027042
   1.14220   1.66000   2.44055  -.099575
   1.27580   1.74000   2.62205  -.126782
   1.40940   1.82000   2.80427  -.141813
   1.54300   1.90000   2.98706  -.148679
   1.60980   1.94000   3.07865  -.149907
   1.67660   1.98000   3.17034  -.150006
   1.74340   2.02000   3.26213  -.149174
   1.94380   2.14000   3.53803  -.142633
   1.03200   1.88000   2.55726  -.087035
   1.16400   1.94000   2.71600  -.121895
   1.29600   2.00000   2.87604  -.141152
   1.42800   2.06000   3.03718  -.150316
   1.56000   2.12000   3.19925  -.152866
   1.69200   2.18000   3.36212  -.151076
   1.82400   2.24000   3.52567  -.146473
   2.08800   2.36000   3.85448  -.132629
    .91000   2.14000   2.71203  -.052932
   1.07000   2.18000   2.86878  -.113299
   1.23000   2.22000   3.02851  -.142596
   1.39000   2.26000   3.19078  -.154258
   1.55000   2.30000   3.35522  -.155760
   1.71000   2.34000   3.52152  -.151429
   1.87000   2.38000   3.68943  -.143913
   2.19000   2.46000   4.02928  -.125299
    .91000   2.74000   3.29076  -.073671
   1.09000   2.76000   3.43716  -.134769
   1.27000   2.78000   3.58774  -.159222
   1.45000   2.80000   3.74199  -.164342
   1.63000   2.82000   3.89947  -.159128
   1.81000   2.84000   4.05982  -.148530
   2.17000   2.88000   4.38781  -.121667
   2.53000   2.92000   4.72386  -.095931
    .90000   3.40000   3.92810  -.078461
   1.10000   3.40000   4.06325  -.145207
   1.25000   3.40000   4.16803  -.164886
   1.40000   3.40000   4.27551  -.170295
   1.55000   3.40000   4.38549  -.167202
   1.80000   3.40000   4.57384  -.152020
   2.00000   3.40000   4.72864  -.135784
   3.00000   3.40000   5.54617  -.061322
   1.50000   1.50000   2.12132  -.104424
   1.70000   1.70000   2.40416  -.123574
   1.80000   1.80000   2.54558  -.126821
   1.90000   1.90000   2.68701  -.127150
   2.00000   2.00000   2.82843  -.125261
   2.10000   2.10000   2.96985  -.121720
   2.30000   2.30000   3.25269  -.111291
   2.50000   2.50000   3.53553  -.098407
   1.20000   1.40000   1.84391  -.056318
   1.58000   1.78000   2.38008  -.123573
   1.72000   1.92000   2.57775  -.128528
   1.79000   1.99000   2.67660  -.128764
   1.86000   2.06000   2.77546  -.127859
   2.00000   2.20000   2.97321  -.123395
   2.14000   2.34000   3.17099  -.116454
   1.11000   1.78000   2.09774  -.082093
   1.45000   2.02000   2.48654  -.132193
   1.62000   2.14000   2.68403  -.135991
   1.79000   2.26000   2.88300  -.132853
   2.13000   2.50000   3.28434  -.115982
   1.46000   2.48000   2.87785  -.149523
   1.85400   2.54800   3.15113  -.133923
   2.44500   2.65000   3.60562  -.096869
    .90000   3.44000   3.55578  -.076332
   1.10000   3.44000   3.61159  -.143198
   1.25000   3.44000   3.66007  -.162183
   1.40000   3.44000   3.71397  -.167815
   1.55000   3.44000   3.77308  -.164105
   1.80000   3.44000   3.88247  -.149011
   2.00000   3.44000   3.97915  -.132539
   3.00000   3.44000   4.56438  -.057237
   2.30000   2.62500   3.49008  -.105250
   1.00000   2.40100   2.60092  -.092510
    .90000    .90000    .90000   .342584
   1.25000   1.25000   1.25000   .032571
   1.60000   1.60000   1.60000  -.056313
   1.90000   1.90000   1.90000  -.074010
   2.00000   2.00000   2.00000  -.074501
   2.10000   2.10000   2.10000  -.073400
   2.50000   2.50000   2.50000  -.060287
    .60000    .80000   1.40000   .593580
    .60000   1.75000   2.35000   .294257
    .60000   2.10000   2.70000   .268052
    .60000   3.40000   4.00000   .234879
    .60000    .80000   1.31402   .602586
    .60000   1.00000   1.51574   .467071
    .60000   1.40000   1.91743   .345679
    .60000   1.75000   2.26814   .297368
    .60000   2.10000   2.61855   .270010
    .60000   2.60000   3.11889   .248760
    .60000   3.40000   3.91918   .235163
    .60000    .80000   1.08811   .639758
    .60000   1.00000   1.29205   .491017
    .60000   1.40000   1.69570   .360147
    .60000   1.75000   2.04716   .306758
    .60000   2.10000   2.39798   .276133
    .60000   2.60000   2.89865   .251943
    .60000   3.40000   3.69919   .236195
    .60000    .80000    .80000   .761954
    .60000   1.40000   1.40000   .388481
    .60000   1.75000   1.75000   .323524
    .60000   2.10000   2.10000   .286566
    .60000   2.60000   2.60000   .257232
    .60000   3.40000   3.40000   .237882
    .80000   1.00000   1.80000   .189865
    .80000   1.20000   2.00000   .118973
    .80000   1.90000   2.70000   .024175
    .80000   2.10000   2.90000   .012779
    .80000   2.35000   3.15000   .002466
    .80000    .80000   1.58631   .321999
    .80000   1.00000   1.78479   .190905
    .80000   1.40000   2.18258   .077735
    .80000   1.75000   2.53122   .035983
    .80000   2.10000   2.88019   .013161
    .80000   2.60000   3.37909  -.004505
    .80000    .80000   1.54548   .325350
    .80000   1.00000   1.73944   .194089
    .80000   1.20000   1.93462   .122954
    .80000   1.40000   2.13070   .080353
    .80000   1.60000   2.32745   .052759
    .80000   1.75000   2.47535   .037837
    .80000   1.90000   2.62349   .026293
    .80000   2.10000   2.82132   .014470
    .80000   2.35000   3.06900   .003768
    .80000   3.00000   3.71442  -.011567
    .80000   4.00000   4.70984  -.018729
    .80000    .80000   1.47821   .331266
    .80000   1.00000   1.66474   .199722
    .80000   1.40000   2.04546   .084905
    .80000   1.75000   2.38378   .041053
    .80000   2.10000   2.72505   .016675
    .80000   2.60000   3.21583  -.002631
    .80000    .80000   1.38564   .340628
    .80000   1.00000   1.56205   .208351
    .80000   1.20000   1.74356   .135900
    .80000   1.40000   1.92873   .091720
    .80000   1.60000   2.11660   .062287
    .80000   1.75000   2.25887   .046087
    .80000   1.90000   2.40208   .033171
    .80000   2.35000   2.83593   .007936
    .80000   3.00000   3.46987  -.009740
    .80000   4.00000   4.45421  -.018296
    .80000    .80000   1.26937   .355725
    .80000   1.00000   1.43322   .221312
    .80000   1.40000   1.78319   .101354
    .80000   1.75000   2.10409   .052948
    .80000   2.10000   2.43303   .024677
    .80000   2.60000   2.91148   .001736
    .80000    .80000   1.13137   .382257
    .80000   1.00000   1.28062   .242008
    .80000   1.20000   1.44222   .163863
    .80000   1.40000   1.61245   .114910
    .80000   1.75000   1.92419   .062254
    .80000   2.10000   2.24722   .030807
    .80000   2.60000   2.72029   .005016
    .80000   3.00000   3.10483  -.006274
    .80000   4.00000   4.07922  -.017518
    .80000    .80000    .97980   .428852
    .80000   1.00000   1.14891   .267898
    .80000   1.00000   1.00000   .312428
    .80000   1.20000   1.20000   .200922
    .80000   1.75000   1.75000   .072916
    .80000   1.90000   1.90000   .054989
    .80000   2.10000   2.10000   .036327
    .80000   2.35000   2.35000   .019414
    .80000   2.60000   2.60000   .007366
    .80000   3.00000   3.00000  -.005118
    .80000   4.00000   4.00000  -.017338
   1.00000   1.00000   2.00000   .062010
   1.00000   1.20000   2.20000  -.004930
   1.00000   1.00000   1.98289   .063089
   1.00000   1.20000   2.18133  -.003866
   1.00000   1.40000   2.38004  -.041974
   1.00000   1.60000   2.57895  -.065560
   1.00000   1.75000   2.72823  -.077744
   1.00000   1.90000   2.87759  -.087079
   1.00000   2.10000   3.07683  -.096439
   1.00000   2.35000   3.32601  -.105015
   1.00000   2.60000   3.57531  -.111072
   1.00000   1.00000   1.93185   .066366
   1.00000   1.20000   2.12567  -.000721
   1.00000   1.75000   2.66338  -.075740
   1.00000   2.35000   3.25466  -.103987
   1.00000   3.00000   3.89822  -.116961
   1.00000   4.00000   4.89165  -.123368
   1.00000   1.00000   1.84776   .072104
   1.00000   1.20000   2.03398   .004748
   1.00000   1.40000   2.22259  -.034342
   1.00000   1.60000   2.41304  -.059028
   1.00000   1.75000   2.55683  -.072121
   1.00000   1.90000   2.70130  -.082255
   1.00000   2.10000   2.89480  -.092557
   1.00000   2.35000   3.13782  -.102163
   1.00000   2.60000   3.38186  -.108998
   1.00000   1.00000   1.73205   .080830
   1.00000   1.20000   1.90788   .013030
   1.00000   1.60000   2.27156  -.052705
   1.00000   2.35000   2.97867  -.099335
   1.00000   3.00000   3.60555  -.115029
   1.00000   4.00000   4.58258  -.122981
   1.00000   1.00000   1.58671   .093710
   1.00000   1.20000   1.74962   .025168
   1.00000   1.40000   1.91956  -.016107
   1.00000   1.60000   2.09481  -.043556
   1.00000   1.75000   2.22898  -.058777
   1.00000   1.90000   2.36506  -.070932
   1.00000   2.10000   2.54893  -.083590
   1.00000   2.35000   2.78190  -.095419
   1.00000   2.60000   3.01759  -.104054
   1.00000   1.00000   1.41421   .113419
   1.00000   1.20000   1.56205   .042992
   1.00000   1.40000   1.72047  -.000850
   1.00000   1.60000   1.88680  -.030885
   1.00000   1.90000   2.14709  -.061796
   1.00000   2.10000   2.32594  -.076440
   1.00000   3.00000   3.16228  -.111028
   1.00000   4.00000   4.12311  -.121997
   1.00000   1.00000   1.22475   .145193
   1.00000   1.20000   1.39284   .063941
   1.00000   1.40000   1.56844   .013239
   1.00000   1.00000   1.00000   .212316
   1.00000   1.20000   1.20000   .097433
   1.00000   1.40000   1.40000   .032223
   1.00000   1.60000   1.60000  -.009441
   1.00000   1.75000   1.75000  -.031991
   1.00000   1.90000   1.90000  -.049759
   1.00000   2.10000   2.10000  -.068121
   1.00000   2.35000   2.35000  -.084791
   1.00000   2.60000   2.60000  -.096671
   1.00000   3.00000   3.00000  -.109209
   1.00000   3.40000   3.40000  -.116407
   1.00000   4.00000   4.00000  -.121655
   1.20000   1.40000   2.60000  -.100626
   1.20000   1.20000   2.37947  -.066185
   1.20000   1.40000   2.57789  -.099732
   1.20000   1.60000   2.77654  -.119075
   1.20000   1.75000   2.92564  -.128549
   1.20000   1.90000   3.07484  -.135622
   1.20000   2.10000   3.27388  -.142631
   1.20000   2.35000   3.52283  -.149056
   1.20000   2.60000   3.77192  -.153770
   1.20000   1.40000   2.51194  -.096988
   1.20000   1.20000   2.21731  -.057825
   1.20000   1.40000   2.40331  -.092050
   1.20000   1.60000   2.59139  -.112432
   1.20000   1.75000   2.73356  -.122751
   1.20000   1.90000   2.87653  -.130559
   1.20000   2.10000   3.06819  -.138562
   1.20000   2.35000   3.30917  -.146039
   1.20000   2.60000   3.55139  -.151552
   1.20000   1.40000   2.25389  -.084385
   1.20000   1.20000   1.90405  -.037233
   1.20000   1.40000   2.06631  -.072871
   1.20000   1.60000   2.23470  -.095736
   1.20000   1.75000   2.36422  -.108188
   1.20000   1.90000   2.49604  -.118150
   1.20000   2.10000   2.67478  -.128661
   1.20000   2.35000   2.90211  -.138708
   1.20000   2.60000   3.13290  -.146190
   1.20000   2.10000   2.41868  -.120461
   1.20000   2.60000   2.86356  -.141803
   1.20000   1.20000   1.46969   .007390
   1.20000   1.40000   1.63707  -.036786
   1.20000   1.60000   1.81108  -.067743
   1.20000   1.75000   1.94487  -.085448
   1.20000   1.40000   1.40000  -.008933
   1.20000   1.60000   1.60000  -.050657
   1.20000   1.75000   1.75000  -.073045
   1.20000   1.90000   1.90000  -.090574
   1.20000   2.10000   2.10000  -.108642
   1.20000   2.35000   2.35000  -.125090
   1.20000   2.60000   2.60000  -.136841
   1.40000   1.40000   2.77605  -.128521
   1.40000   1.60000   2.97445  -.143372
   1.40000   1.75000   3.12339  -.149947
   1.40000   1.90000   3.27242  -.154481
   1.40000   2.10000   3.47126  -.158764
   1.40000   2.35000   3.71999  -.162760
   1.40000   2.60000   3.96887  -.165962
   1.40000   1.60000   2.89824  -.141091
   1.40000   3.00000   4.27020  -.169178
   1.40000   4.00000   5.25923  -.173644
   1.40000   1.40000   2.58686  -.121259
   1.40000   1.60000   2.77270  -.136955
   1.40000   1.75000   2.91330  -.144172
   1.40000   1.90000   3.05480  -.149401
   1.40000   2.10000   3.24466  -.154644
   1.40000   2.35000   3.48357  -.159654
   1.40000   2.60000   3.72394  -.163650
   1.40000   1.60000   2.60000  -.130235
   1.40000   4.00000   4.85387  -.173101
   1.40000   1.40000   2.22139  -.102539
   1.40000   1.60000   2.38317  -.119914
   1.40000   1.75000   2.50813  -.129043
   1.40000   1.90000   2.63570  -.136221
   1.40000   2.10000   2.80924  -.144029
   1.40000   2.35000   3.03076  -.151756
   1.40000   2.60000   3.25641  -.157793
   1.40000   1.40000   1.97990  -.085662
   1.40000   1.60000   2.12603  -.104447
   1.40000   1.75000   2.24109  -.115333
   1.40000   3.00000   3.31059  -.161879
   1.40000   4.00000   4.23792  -.171940
   1.40000   1.40000   1.71464  -.061318
   1.40000   1.60000   1.88149  -.085935
   1.40000   1.75000   2.01060  -.100977
   1.40000   1.90000   2.14243  -.113552
   1.40000   2.10000   2.32164  -.127169
   1.40000   1.75000   1.75000  -.083384
   1.40000   3.40000   3.40000  -.165706
   1.40000   4.00000   4.00000  -.171256
   1.60000   1.60000   3.17262  -.153886
   1.60000   1.75000   3.32140  -.157433
   1.60000   1.90000   3.47028  -.159231
   1.60000   2.10000   3.66893  -.160442
   1.60000   2.35000   3.91743  -.161653
   1.60000   2.60000   4.16611  -.162973
   1.60000   1.60000   2.95641  -.147883
   1.60000   1.75000   3.09553  -.151948
   1.60000   1.90000   3.23562  -.154345
   1.60000   2.10000   3.42371  -.156406
   1.60000   2.35000   3.66059  -.158601
   1.60000   2.60000   3.89912  -.160660
   1.60000   1.75000   2.90215  -.146180
   1.60000   1.60000   2.53873  -.131688
   1.60000   1.75000   2.65930  -.137009
   1.60000   1.90000   2.78274  -.140987
   1.60000   2.10000   2.95115  -.145378
   1.60000   2.35000   3.16683  -.150247
   1.60000   2.60000   3.38724  -.154498
   1.60000   2.60000   3.05287  -.149022
   1.60000   1.60000   1.95959  -.093813
   1.60000   1.75000   2.08387  -.103993
   1.60000   1.90000   2.21133  -.113535
   1.60000   2.10000   2.38537  -.124812
   1.60000   2.35000   2.60816  -.136200
   1.60000   1.75000   1.75000  -.078142
   1.60000   1.90000   1.90000  -.095333
   1.60000   2.10000   2.10000  -.112909
   1.60000   2.35000   2.35000  -.128889
   1.60000   2.60000   2.60000  -.140296
   1.75000   3.00000   4.75000  -.156545
   1.75000   4.00000   5.75000  -.158597
   1.75000   1.75000   3.47006  -.158731
   1.75000   1.90000   3.61883  -.158365
   1.75000   2.10000   3.81734  -.157219
   1.75000   2.35000   4.06568  -.155997
   1.75000   2.60000   4.31421  -.155764
   1.75000   3.00000   4.59954  -.155916
   1.75000   4.00000   5.58452  -.158411
   1.75000   1.75000   3.23358  -.153622
   1.75000   1.90000   3.37265  -.153768
   1.75000   2.10000   3.55946  -.153302
   1.75000   2.35000   3.79486  -.153021
   1.75000   2.60000   4.03202  -.153455
   1.75000   2.60000   3.79111  -.150981
   1.75000   3.00000   4.16083  -.153534
   1.75000   4.00000   5.10514  -.157805
   1.75000   1.75000   2.77674  -.139385
   1.75000   1.90000   2.89718  -.140750
   1.75000   2.10000   3.06183  -.142254
   1.75000   2.35000   3.27319  -.144543
   1.75000   2.60000   3.48966  -.147174
   1.75000   3.00000   3.47311  -.147797
   1.75000   4.00000   4.36606  -.156359
   1.75000   1.75000   2.14330  -.104384
   1.75000   1.90000   2.26743  -.110322
   1.75000   2.10000   2.43747  -.118746
   1.75000   2.35000   2.65589  -.128392
   1.75000   2.60000   2.87945  -.136262
   1.75000   1.75000   1.75000  -.068697
   1.75000   1.90000   1.90000  -.085836
   1.75000   2.10000   2.10000  -.103316
   1.75000   2.35000   2.35000  -.119213
   1.75000   2.60000   2.60000  -.130521
   1.75000   3.00000   3.00000  -.142484
   1.75000   3.40000   3.40000  -.149648
   1.75000   4.00000   4.00000  -.155357
   1.90000   1.90000   3.76749  -.156009
   1.90000   2.10000   3.96587  -.152284
   1.90000   2.35000   4.21405  -.148525
   1.90000   2.60000   4.46244  -.146468
   1.90000   1.90000   3.51074  -.151771
   1.90000   2.10000   3.69631  -.148661
   1.90000   2.35000   3.93026  -.145694
   1.90000   2.60000   4.16608  -.144279
   1.90000   1.90000   3.01474  -.139461
   1.90000   2.10000   3.17575  -.137889
   1.90000   2.35000   3.38286  -.137177
   1.90000   2.60000   3.59543  -.137886
   1.90000   1.90000   2.32702  -.107536
   1.90000   2.10000   2.49299  -.111791
   1.90000   2.35000   2.70694  -.118821
   1.90000   2.60000   2.92660  -.125505
   1.90000   2.35000   2.35000  -.107141
   1.90000   2.60000   2.60000  -.118430
   2.10000   2.10000   4.16407  -.145264
   2.10000   2.35000   4.41205  -.137910
   2.10000   2.60000   4.66025  -.133085
   2.10000   4.00000   5.91263  -.128986
   2.10000   2.10000   3.88029  -.142029
   2.10000   2.35000   4.11238  -.135335
   2.10000   2.60000   4.34645  -.131060
   2.10000   4.00000   5.36750  -.128396
   2.10000   2.10000   3.33208  -.132141
   2.10000   2.35000   3.53370  -.127111
   2.10000   2.60000   3.74116  -.124708
   2.10000   3.00000   3.66197  -.120548
   2.10000   4.00000   4.51774  -.126825
   2.10000   2.10000   2.57196  -.104503
   2.10000   2.35000   2.77984  -.105975
   2.10000   2.60000   2.99416  -.110128
   2.10000   2.35000   2.35000  -.089216
   2.10000   2.60000   2.60000  -.100535
   2.10000   3.00000   3.00000  -.112461
   2.10000   3.40000   3.40000  -.119608
   2.10000   4.00000   4.00000  -.125400
   2.35000   2.35000   4.65979  -.126050
   2.35000   2.60000   4.90776  -.117370
   2.35000   2.35000   4.34223  -.123799
   2.35000   2.60000   4.57420  -.115589
   2.35000   2.35000   3.72876  -.116470
   2.35000   2.60000   3.93005  -.109619
   2.35000   2.35000   2.87815  -.093980
   2.35000   2.60000   3.08565  -.092506
   2.35000   2.60000   2.60000  -.077647
   2.60000   2.60000   5.15551  -.104754
   2.60000   3.40000   5.79925  -.087691
   2.60000   4.00000   6.38540  -.086138
   2.60000   2.60000   4.80417  -.103213
   2.60000   3.40000   5.21153  -.086473
   2.60000   4.00000   5.75847  -.085618
   2.60000   2.60000   4.12544  -.097974
   2.60000   3.00000   3.96989  -.083656
   2.60000   3.40000   4.28019  -.082599
   2.60000   4.00000   4.77074  -.083926
   2.60000   2.60000   3.18434  -.080141
   2.60000   3.00000   3.00000  -.068361
   2.60000   3.40000   3.40000  -.075738
   2.60000   4.00000   4.00000  -.081702
   3.00000   3.40000   6.40000  -.062596
   3.00000   4.00000   7.00000  -.058289
   3.00000   4.00000   6.76643  -.058218
   3.00000   4.00000   6.08276  -.057733
   3.00000   4.00000   5.00000  -.056124
   3.00000   3.40000   3.40000  -.046907
   3.00000   4.00000   4.00000  -.052971
   3.40000   3.40000   6.80000  -.046660
   3.40000   4.00000   7.40000  -.038038
   3.40000   3.40000   6.56830  -.046539
   3.40000   4.00000   7.14954  -.037917
   3.40000   3.40000   5.88897  -.045854
   3.40000   4.00000   6.41561  -.037613
   3.40000   3.40000   4.80833  -.042749
   3.40000   4.00000   5.24976  -.036149
   3.40000   3.40000   3.40000  -.025485
   3.40000   4.00000   4.00000  -.031634
   1.20000   2.37697   2.37697  -.126342
   1.40000   2.21359   2.21359  -.126390
   1.60000   2.24722   2.24722  -.122877
   1.80000   2.37697   2.37697  -.116768
   2.00000   2.50799   2.50799  -.105900
   2.00000   2.69258   2.69258  -.112956
   1.20000   2.27392   2.47574  -.126452
   1.40000   2.09511   2.32605  -.127058
   1.60000   2.11342   2.37349  -.124454
   1.80000   2.22763   2.51747  -.119205
   2.00000   2.52621   2.84925  -.114965
   1.20000   1.97689   2.37316  -.115209
   1.40000   1.97344   2.43013  -.128838
   1.60000   1.97505   2.48982  -.128529
   2.00000   2.17180   2.80416  -.118073
   1.20000   1.87350   2.45561  -.115714
   1.40000   1.85203   2.52389  -.131111
   1.60000   1.83576   2.59422  -.133717
   1.80000   1.82483   2.66646  -.131858
   1.81934   2.00000   2.74044  -.129877
   1.81934   2.20000   2.81603  -.129341
   1.40000   1.64018   2.50795  -.127103
   1.60000   1.60720   2.58784  -.134124
   1.42435   1.60000   2.39400  -.121444
   1.40263   1.80000   2.47642  -.128352
   1.20000   1.78259   2.68744  -.122051
   1.40000   1.53136   2.57583  -.127262
   1.29375   1.60000   2.46702  -.117584
   1.25220   1.80000   2.55577  -.123429
   1.21747   2.00000   2.64533  -.127556
   1.20000   1.70695   2.73611  -.121569
   1.40000   1.43706   2.62961  -.125384
   1.36701   1.60000   2.72237  -.133464
   1.20756   1.80000   2.71695  -.124472
   1.14852   2.00000   2.81085  -.123395
   1.20000   1.64900   2.77142  -.120818
   1.36340   1.40000   2.66855  -.122058
   1.27788   1.60000   2.76532  -.128086
   1.19462   1.80000   2.86232  -.127311
   1.11410   2.00000   2.95952  -.121094
   1.20000   1.61248   2.79283  -.120116
   1.40000   1.41586   2.79201  -.130182
   1.31949   1.60000   2.89119  -.135858
   1.22369   1.80000   2.99041  -.134237
   1.12863   2.00000   3.08969  -.126745
   1.20000   1.60000   2.80000  -.119845
   1.30000   1.60000   2.90000  -.134474
   1.20000   1.80000   3.00000  -.131771
   1.10000   2.00000   3.10000  -.121352
   1.17624   1.17624   1.40111   .025141
   1.40111   1.58098   1.58098  -.057841
   1.40111   2.01540   2.01540  -.111588
   1.40111   2.46385   2.46385  -.140431
   1.40111   2.91988   2.91988  -.156497
   1.88973   2.11278   2.11278  -.093086
   1.41730   1.41729   1.41729  -.023828
   2.36216   2.36216   2.36216  -.065640
   2.83459   2.83459   2.83459  -.045892
    .60000   1.00000   1.00000   .556733
    .60000   1.00000   1.41747   .476169
    .60000   1.00000   1.60000   .460177
    .80000    .80000    .80000   .526467
    .80000    .80000   1.60000   .320915
    .60000   1.40000   2.00000   .341006
    .60000   2.60000   3.20000   .247745
    .80000   1.50000   2.30000   .062060
    .80000   1.50000   1.50000   .114430
    .70000    .70000   1.40000   .540368
    .90000    .90000   1.80000   .168990
   1.20000   1.20000   2.40000  -.067222
   1.40000   1.40000   2.80000  -.129432
   1.20000   1.20000   1.20000   .057317
   1.30000   1.30000   1.40000  -.006077
   1.60000   1.60000   1.75000  -.073675
   2.40000   2.40000   2.60000  -.075966
838 5  .48413   .07536   .15341  1.08619  1.04325  1.41360 0.d0
     1.000000     3.100000     4.500000     2.100000     3.500000     1.400000    -0.268696
     1.000000     3.600000     5.000000     2.600000     4.000000     1.400000    -0.287420
     1.000000     3.600000     5.350000     2.600000     4.350000     1.750000    -0.272699
     1.000000     4.400000     5.800000     3.400000     4.800000     1.400000    -0.297474
     1.000000     4.400000     6.150000     3.400000     5.150000     1.750000    -0.281729
     1.000000     4.400000     6.500000     3.400000     5.500000     2.100000    -0.251767
     1.400000     2.800000     4.200000     1.400000     2.800000     1.400000    -0.252153
     1.400000     3.150000     4.550000     1.750000     3.150000     1.400000    -0.298740
     1.400000     3.150000     4.900000     1.750000     3.500000     1.750000    -0.289373
     1.400000     3.150000     5.250000     1.750000     3.850000     2.100000    -0.265206
     1.400000     3.500000     4.900000     2.100000     3.500000     1.400000    -0.322493
     1.400000     3.500000     5.250000     2.100000     3.850000     1.750000    -0.309669
     1.400000     3.500000     5.600000     2.100000     4.200000     2.100000    -0.282690
     1.400000     4.000000     5.400000     2.600000     4.000000     1.400000    -0.338539
     1.400000     4.000000     5.750000     2.600000     4.350000     1.750000    -0.323675
     1.400000     4.000000     6.100000     2.600000     4.700000     2.100000    -0.294671
     1.400000     4.000000     6.600000     2.600000     5.200000     2.600000    -0.251982
     1.400000     4.800000     6.200000     3.400000     4.800000     1.400000    -0.347269
     1.400000     4.800000     6.550000     3.400000     5.150000     1.750000    -0.331601
     1.400000     4.800000     6.900000     3.400000     5.500000     2.100000    -0.301695
     1.400000     4.800000     7.400000     3.400000     6.000000     2.600000    -0.258290
     1.750000     3.500000     5.250000     1.750000     3.500000     1.750000    -0.280925
     1.750000     3.850000     5.600000     2.100000     3.850000     1.750000    -0.297773
     1.750000     3.850000     5.950000     2.100000     4.200000     2.100000    -0.271441
     1.750000     4.350000     6.100000     2.600000     4.350000     1.750000    -0.309224
     1.750000     4.350000     6.450000     2.600000     4.700000     2.100000    -0.280743
     1.750000     5.150000     6.900000     3.400000     5.150000     1.750000    -0.316060
     1.750000     5.150000     7.250000     3.400000     5.500000     2.100000    -0.286240
     2.100000     4.700000     6.800000     2.600000     4.700000     2.100000    -0.252932
     2.100000     5.500000     7.600000     3.400000     5.500000     2.100000    -0.256948
     1.000000     3.100000     4.368880     2.100000     3.385590     1.400000    -0.266005
     1.000000     3.100000     4.697750     2.100000     3.719920     1.750000    -0.253354
     1.000000     3.100000     3.988730     2.100000     3.051230     1.400000    -0.257275
     1.000000     3.600000     4.863080     2.600000     3.876170     1.400000    -0.286349
     1.000000     3.600000     5.189840     2.600000     4.207530     1.750000    -0.271509
     1.000000     3.600000     4.467660     2.600000     3.515680     1.400000    -0.282254
     1.000000     3.600000     4.724670     2.600000     3.791110     1.750000    -0.267404
     1.000000     3.600000     3.862640     2.600000     2.952960     1.400000    -0.272527
     1.000000     3.600000     4.002810     2.600000     3.134090     1.750000    -0.256933
     1.000000     2.961660     3.933090     2.100000     2.946670     1.400000    -0.253642
     1.000000     2.961660     4.270530     2.100000     3.328060     1.400000    -0.263307
     1.000000     2.961660     4.358270     2.100000     3.494020     1.400000    -0.265562
     1.000000     2.961660     4.187770     2.100000     3.431620     1.400000    -0.262862
     1.000000     2.961660     3.775810     2.100000     3.145680     1.400000    -0.252621
     1.000000     3.463010     3.827850     2.600000     2.831960     1.400000    -0.269115
     1.000000     3.463010     3.991240     2.600000     2.991240     1.750000    -0.253760
     1.000000     3.463010     4.403890     2.600000     3.425920     1.400000    -0.280664
     1.000000     3.463010     4.675170     2.600000     3.686960     1.750000    -0.266168
     1.000000     3.463010     4.762130     2.600000     3.826940     1.400000    -0.285156
     1.000000     3.463010     5.095270     2.600000     4.150820     1.750000    -0.270449
     1.000000     3.463010     4.860410     2.600000     3.995780     1.400000    -0.285925
     1.000000     3.463010     5.209980     2.600000     4.345150     1.750000    -0.271235
     1.000000     3.463010     4.688060     2.600000     3.917330     1.400000    -0.284623
     1.000000     3.463010     5.008670     2.600000     4.254920     1.750000    -0.269955
     1.000000     3.463010     4.264010     2.600000     3.598520     1.400000    -0.280166
     1.000000     3.463010     4.510170     2.600000     3.887050     1.750000    -0.265169
     1.000000     3.463010     3.640390     2.600000     3.069200     1.400000    -0.269040
     1.000000     3.463010     3.765630     2.600000     3.270700     1.750000    -0.253016
     1.000000     2.591310     3.934000     2.100000     3.278200     1.400000    -0.253174
     1.000000     2.591310     3.978510     2.100000     3.481900     1.400000    -0.256644
     1.000000     2.591310     3.776760     2.100000     3.458180     1.400000    -0.252296
     1.000000     3.094140     3.570170     2.600000     2.739990     1.400000    -0.257946
     1.000000     3.094140     4.107660     2.600000     3.355470     1.400000    -0.274291
     1.000000     3.094140     4.394330     2.600000     3.605060     1.750000    -0.260545
     1.000000     3.094140     4.423680     2.600000     3.785550     1.400000    -0.280761
     1.000000     3.094140     4.762380     2.600000     4.103110     1.750000    -0.266709
     1.000000     3.094140     4.484640     2.600000     3.987270     1.400000    -0.281993
     1.000000     3.094140     4.833130     2.600000     4.335370     1.750000    -0.268190
     1.000000     3.094140     4.284450     2.600000     3.942440     1.400000    -0.280278
     1.000000     3.094140     4.600510     2.600000     4.283810     1.750000    -0.266263
     1.000000     3.094140     3.843550     2.600000     3.655020     1.400000    -0.273472
     1.000000     3.094140     4.084750     2.600000     3.952400     1.750000    -0.259511
     1.000000     3.094140     3.212670     2.600000     3.151580     1.400000    -0.257767
     1.000000     2.600000     3.674850     2.600000     3.328610     1.400000    -0.260737
     1.000000     2.600000     3.950570     2.600000     3.769210     1.400000    -0.270712
     1.000000     2.600000     4.293160     2.600000     4.084270     1.750000    -0.258252
     1.000000     2.600000     3.982980     2.600000     3.982980     1.400000    -0.273713
     1.000000     2.600000     4.330430     2.600000     4.330430     1.750000    -0.260960
     1.400000     3.150000     4.418240     1.750000     3.044010     1.400000    -0.295216
     1.400000     3.150000     4.746890     1.750000     3.380740     1.750000    -0.286051
     1.400000     3.150000     5.078390     1.750000     3.719920     2.100000    -0.262368
     1.400000     3.150000     4.036400     1.750000     2.733590     1.400000    -0.283721
     1.400000     3.150000     4.300870     1.750000     3.031090     1.750000    -0.274884
     1.400000     3.150000     4.576840     1.750000     3.338790     2.100000    -0.252031
     1.400000     3.150000     3.447100     1.750000     2.241090     1.400000    -0.256679
     1.400000     3.500000     4.764140     2.100000     3.385590     1.400000    -0.320134
     1.400000     3.500000     5.091300     2.100000     3.719920     1.750000    -0.307703
     1.400000     3.500000     5.421310     2.100000     4.056890     2.100000    -0.280874
     1.400000     3.500000     4.371500     2.100000     3.051230     1.400000    -0.313094
     1.400000     3.500000     4.630060     2.100000     3.338790     1.750000    -0.300443
     1.400000     3.500000     4.900000     2.100000     3.637310     2.100000    -0.274226
     1.400000     3.500000     3.769620     2.100000     2.523890     1.400000    -0.296122
     1.400000     3.500000     3.913120     2.100000     2.733590     1.750000    -0.282220
     1.400000     3.500000     4.081670     2.100000     2.969850     2.100000    -0.255630
     1.400000     4.000000     5.259230     2.600000     3.876170     1.400000    -0.337349
     1.400000     4.000000     5.584520     2.600000     4.207530     1.750000    -0.322904
     1.400000     4.000000     5.912630     2.600000     4.541700     2.100000    -0.293866
     1.400000     4.000000     6.385400     2.600000     5.022810     2.600000    -0.251395
     1.400000     4.000000     4.853860     2.600000     3.515680     1.400000    -0.333907
     1.400000     4.000000     5.105140     2.600000     3.791110     1.750000    -0.318984
     1.400000     4.000000     5.367490     2.600000     4.077990     2.100000    -0.290637
     1.400000     4.000000     4.237920     2.600000     2.952960     1.400000    -0.326022
     1.400000     4.000000     4.366060     2.600000     3.134090     1.750000    -0.310392
     1.400000     4.000000     4.517740     2.600000     3.342150     2.100000    -0.281570
     1.400000     2.947930     3.949290     1.750000     2.564040     1.400000    -0.276807
     1.400000     2.947930     4.235100     1.750000     2.839850     1.750000    -0.270070
     1.400000     2.947930     4.270610     1.750000     2.947930     1.400000    -0.290227
     1.400000     2.947930     4.608420     1.750000     3.272570     1.750000    -0.282278
     1.400000     2.947930     4.947930     1.750000     3.601970     2.100000    -0.259861
     1.400000     2.947930     4.341210     1.750000     3.134250     1.400000    -0.292887
     1.400000     2.947930     4.690160     1.750000     3.482280     1.750000    -0.285074
     1.400000     2.947930     5.039250     1.750000     3.830670     2.100000    -0.262123
     1.400000     2.947930     4.154280     1.750000     3.109710     1.400000    -0.288452
     1.400000     2.947930     4.473540     1.750000     3.454670     1.750000    -0.280370
     1.400000     2.947930     4.797080     1.750000     3.800550     2.100000    -0.257851
     1.400000     2.947930     3.728200     1.750000     2.876060     1.400000    -0.273474
     1.400000     2.947930     3.976720     1.750000     3.191630     1.750000    -0.265510
     1.400000     3.301670     3.720350     2.100000     2.321640     1.400000    -0.287369
     1.400000     3.301670     3.897240     2.100000     2.499500     1.750000    -0.275002
     1.400000     3.301670     4.096460     2.100000     2.711090     2.100000    -0.250232
     1.400000     3.301670     4.278550     2.100000     2.901750     1.400000    -0.308970
     1.400000     3.301670     4.557380     2.100000     3.167840     1.750000    -0.297451
     1.400000     3.301670     4.845460     2.100000     3.448950     2.100000    -0.272023
     1.400000     3.301670     4.616490     2.100000     3.301670     1.400000    -0.317371
     1.400000     3.301670     4.952500     2.100000     3.624400     1.750000    -0.305300
     1.400000     3.301670     5.290320     2.100000     3.951770     2.100000    -0.279232
     1.400000     3.301670     4.696120     2.100000     3.488230     1.400000    -0.318793
     1.400000     3.301670     5.045220     2.100000     3.836630     1.750000    -0.307326
     1.400000     3.301670     5.394430     2.100000     4.185290     2.100000    -0.280774
     1.400000     3.301670     4.509100     2.100000     3.446880     1.400000    -0.316011
     1.400000     3.301670     4.827240     2.100000     3.789620     1.750000    -0.304164
     1.400000     3.301670     5.149520     2.100000     4.133580     2.100000    -0.277897
     1.400000     3.301670     4.075360     2.100000     3.180810     1.400000    -0.307184
     1.400000     3.301670     4.318330     2.100000     3.486690     1.750000    -0.295107
     1.400000     3.301670     4.575190     2.100000     3.800180     2.100000    -0.269306
     1.400000     3.301670     3.446880     2.100000     2.711090     1.400000    -0.286792
     1.400000     3.301670     3.569100     2.100000     2.949150     1.750000    -0.272642
     1.400000     3.804900     4.173400     2.600000     2.782090     1.400000    -0.321985
     1.400000     3.804900     4.331830     2.600000     2.932150     1.750000    -0.306790
     1.400000     3.804900     4.511900     2.600000     3.114480     2.100000    -0.278156
     1.400000     3.804900     4.752920     2.600000     3.387940     1.400000    -0.332371
     1.400000     3.804900     5.023050     2.600000     3.642830     1.750000    -0.317822
     1.400000     3.804900     5.302520     2.600000     3.912450     2.100000    -0.289273
     1.400000     3.804900     5.110240     2.600000     3.804900     1.400000    -0.336291
     1.400000     3.804900     5.443930     2.600000     4.125420     1.750000    -0.321710
     1.400000     3.804900     5.779550     2.600000     4.450380     2.100000    -0.293053
     1.400000     3.804900     6.261740     2.600000     4.920580     2.600000    -0.250875
     1.400000     3.804900     5.200560     2.600000     3.991710     1.400000    -0.337052
     1.400000     3.804900     5.549820     2.600000     4.340470     1.750000    -0.322392
     1.400000     3.804900     5.899160     2.600000     4.689410     2.100000    -0.293662
     1.400000     3.804900     6.398350     2.600000     5.188150     2.600000    -0.251251
     1.400000     3.804900     5.013440     2.600000     3.931570     1.400000    -0.335411
     1.400000     3.804900     5.330230     2.600000     4.271310     1.750000    -0.321029
     1.400000     3.804900     5.650950     2.600000     4.612580     2.100000    -0.292240
     1.400000     3.804900     6.114680     2.600000     5.102160     2.600000    -0.250294
     1.400000     3.804900     4.570870     2.600000     3.629820     1.400000    -0.331119
     1.400000     3.804900     4.807210     2.600000     3.923260     1.750000    -0.316557
     1.400000     3.804900     5.056740     2.600000     4.225320     2.100000    -0.288053
     1.400000     3.804900     3.931570     2.600000     3.114480     1.400000    -0.322010
     1.400000     3.804900     4.039160     2.600000     3.323780     1.750000    -0.305810
     1.400000     3.804900     4.173400     2.600000     3.555280     2.100000    -0.276551
     1.400000     3.804900     3.114480     2.600000     2.600000     1.970110    -0.259818
     1.400000     2.418840     3.786520     1.750000     2.855620     1.400000    -0.267278
     1.400000     2.418840     4.131820     1.750000     3.168610     1.750000    -0.265046
     1.400000     2.418840     3.790440     1.750000     3.101470     1.400000    -0.271973
     1.400000     2.418840     4.136310     1.750000     3.445400     1.750000    -0.268606
     1.400000     2.418840     3.555320     1.750000     3.138790     1.400000    -0.264012
     1.400000     2.418840     3.866540     1.750000     3.487390     1.750000    -0.261266
     1.400000     2.777560     3.372280     2.100000     2.161620     1.400000    -0.255452
     1.400000     2.777560     3.865190     2.100000     2.777560     1.400000    -0.290510
     1.400000     2.777560     4.166340     2.100000     3.025480     1.750000    -0.281921
     1.400000     2.777560     4.474600     2.100000     3.292000     2.100000    -0.259365
     1.400000     2.777560     4.134780     2.100000     3.224400     1.400000    -0.303915
     1.400000     2.777560     4.478200     2.100000     3.536370     1.750000    -0.294917
     1.400000     2.777560     4.822570     2.100000     3.854880     2.100000    -0.270624
     1.400000     2.777560     4.155060     2.100000     3.464050     1.400000    -0.307042
     1.400000     2.777560     4.501600     2.100000     3.809150     1.750000    -0.297557
     1.400000     2.777560     4.848640     2.100000     4.155060     2.100000    -0.272838
     1.400000     2.777560     3.924150     2.100000     3.477660     1.400000    -0.302156
     1.400000     2.777560     4.234680     2.100000     3.824620     1.750000    -0.293056
     1.400000     2.777560     4.550940     2.100000     4.172080     2.100000    -0.268826
     1.400000     2.777560     3.699110     2.100000     3.581700     1.750000    -0.278133
     1.400000     2.777560     3.951210     2.100000     3.904770     2.100000    -0.255009
     1.400000     2.777560     2.824430     2.100000     2.840320     1.400000    -0.254368
     1.400000     3.284760     3.800930     2.600000     2.650020     1.400000    -0.306977
     1.400000     3.284760     3.996740     2.600000     2.775020     1.750000    -0.292365
     1.400000     3.284760     4.212580     2.600000     2.936650     2.100000    -0.265378
     1.400000     3.284760     4.328900     2.600000     3.284760     1.400000    -0.324276
     1.400000     3.284760     4.619440     2.600000     3.522730     1.750000    -0.310490
     1.400000     3.284760     4.917740     2.600000     3.778160     2.100000    -0.282853
     1.400000     3.284760     4.628900     2.600000     3.741950     1.400000    -0.330425
     1.400000     3.284760     4.969750     2.600000     4.052810     1.750000    -0.317036
     1.400000     3.284760     5.311800     2.600000     4.369590     2.100000    -0.289056
     1.400000     3.284760     4.667870     2.600000     3.974840     1.400000    -0.331795
     1.400000     3.284760     5.015110     2.600000     4.321080     1.750000    -0.318276
     1.400000     3.284760     5.362710     2.600000     4.667870     2.100000    -0.290255
     1.400000     3.284760     4.441770     2.600000     3.962270     1.400000    -0.329553
     1.400000     3.284760     4.751490     2.600000     4.306620     1.750000    -0.316127
     1.400000     3.284760     5.066470     2.600000     4.651820     2.100000    -0.288089
     1.400000     3.284760     3.974840     2.600000     3.705360     1.400000    -0.322743
     1.400000     3.284760     4.202890     2.600000     4.010560     1.750000    -0.308756
     1.400000     3.284760     4.446820     2.600000     4.322560     2.100000    -0.281225
     1.400000     3.284760     3.324490     2.600000     3.227600     1.400000    -0.307184
     1.400000     3.284760     3.424970     2.600000     3.456050     1.750000    -0.291173
     1.400000     3.284760     3.557180     2.600000     3.703530     2.100000    -0.262985
     1.400000     2.100000     3.485830     2.100000     3.192330     1.400000    -0.271263
     1.400000     2.100000     3.833890     2.100000     3.499820     1.750000    -0.268237
     1.400000     2.100000     3.451630     2.100000     3.451630     1.400000    -0.278002
     1.400000     2.100000     3.795020     2.100000     3.795020     1.750000    -0.274358
     1.400000     2.100000     4.139510     2.100000     4.139510     2.100000    -0.254089
     1.400000     2.600000     3.268030     2.600000     2.600000     1.400000    -0.275413
     1.400000     2.600000     3.503210     2.600000     2.715230     1.750000    -0.262425
     1.400000     2.600000     4.040580     2.600000     3.476020     1.750000    -0.292669
     1.400000     2.600000     4.355970     2.600000     3.725890     2.100000    -0.267781
     1.400000     2.600000     3.971380     2.600000     3.716430     1.400000    -0.315695
     1.400000     2.600000     4.317100     2.600000     4.023350     1.750000    -0.304620
     1.400000     2.600000     4.663450     2.600000     4.336800     2.100000    -0.278449
     1.400000     2.600000     3.966260     2.600000     3.966260     1.400000    -0.319259
     1.400000     2.600000     4.311210     2.600000     4.311210     1.750000    -0.307809
     1.400000     2.600000     4.656910     2.600000     4.656910     2.100000    -0.281416
     1.750000     3.500000     5.091300     1.750000     3.380740     1.750000    -0.278042
     1.750000     3.500000     5.421310     1.750000     3.719920     2.100000    -0.256017
     1.750000     3.500000     4.630060     1.750000     3.031090     1.750000    -0.268940
     1.750000     3.850000     5.436420     2.100000     3.719920     1.750000    -0.295978
     1.750000     3.850000     5.765080     2.100000     4.056890     2.100000    -0.269984
     1.750000     3.850000     4.962110     2.100000     3.338790     1.750000    -0.289945
     1.750000     3.850000     5.226610     2.100000     3.637310     2.100000    -0.264188
     1.750000     3.850000     4.229070     2.100000     2.733590     1.750000    -0.275221
     1.750000     4.350000     5.930450     2.600000     4.207530     1.750000    -0.308104
     1.750000     4.350000     6.257380     2.600000     4.541700     2.100000    -0.279949
     1.750000     4.350000     5.440360     2.600000     3.791110     1.750000    -0.305264
     1.750000     4.350000     5.698030     2.600000     4.077990     2.100000    -0.277183
     1.750000     4.350000     4.688820     2.600000     3.134090     1.750000    -0.298006
     1.750000     4.350000     4.830370     2.600000     3.342150     2.100000    -0.268965
     1.750000     3.239650     1.750000     1.750000     3.239650     4.904410    -0.274294
     1.750000     3.239650     2.090720     1.750000     3.586760     5.254410    -0.254058
     1.750000     3.239650     4.527850     1.750000     2.786420     1.750000    -0.263988
     1.750000     3.239650     4.979230     1.750000     3.472100     1.750000    -0.276327
     1.750000     3.239650     5.327970     1.750000     3.819570     2.100000    -0.254681
     1.750000     3.239650     4.745730     1.750000     3.467940     1.750000    -0.271589
     1.750000     3.239650     5.065790     1.750000     3.815020     2.100000    -0.250252
     1.750000     3.239650     4.224830     1.750000     3.227440     1.750000    -0.258736
     1.750000     3.596180     4.186440     2.100000     2.437470     1.750000    -0.266930
     1.750000     3.596180     4.854650     2.100000     3.121020     1.750000    -0.286556
     1.750000     3.596180     5.140980     2.100000     3.397340     2.100000    -0.261775
     1.750000     3.596180     5.251670     2.100000     3.596180     1.750000    -0.293663
     1.750000     3.596180     5.589680     2.100000     3.920710     2.100000    -0.268153
     1.750000     3.596180     5.337430     2.100000     3.829000     1.750000    -0.294966
     1.750000     3.596180     5.686320     2.100000     4.176900     2.100000    -0.269374
     1.750000     3.596180     5.103800     2.100000     3.803120     1.750000    -0.292032
     1.750000     3.596180     5.422820     2.100000     4.148430     2.100000    -0.266955
     1.750000     3.596180     4.573340     2.100000     3.520360     1.750000    -0.283797
     1.750000     3.596180     4.821520     2.100000     3.837260     2.100000    -0.259011
     1.750000     3.596180     3.803120     2.100000     3.000620     1.750000    -0.264195
     1.750000     4.101870     4.628080     2.600000     2.879450     1.750000    -0.294127
     1.750000     4.101870     4.803420     2.600000     3.054910     2.100000    -0.265577
     1.750000     4.101870     5.324590     2.600000     3.602990     1.750000    -0.304029
     1.750000     4.101870     5.602810     2.600000     3.867920     2.100000    -0.275822
     1.750000     4.101870     5.745930     2.600000     4.101870     1.750000    -0.307283
     1.750000     4.101870     6.081840     2.600000     4.424180     2.100000    -0.279183
     1.750000     4.101870     5.844870     2.600000     4.335060     1.750000    -0.307776
     1.750000     4.101870     6.193940     2.600000     4.683410     2.100000    -0.279598
     1.750000     4.101870     5.611100     2.600000     4.284460     1.750000    -0.306428
     1.750000     4.101870     5.928850     2.600000     4.627190     2.100000    -0.278227
     1.750000     4.101870     5.069420     2.600000     3.953950     1.750000    -0.302629
     1.750000     4.101870     5.311200     2.600000     4.259510     2.100000    -0.274194
     1.750000     4.101870     4.284460     2.600000     3.369530     1.750000    -0.292980
     1.750000     4.101870     4.404300     2.600000     3.606590     2.100000    -0.263898
     1.750000     4.101870     3.369530     2.600000     2.600000     1.805150    -0.267181
     1.750000     2.566830     1.750000     1.750000     3.483910     4.157340    -0.254004
     1.750000     2.566830     4.290780     1.750000     3.095190     1.750000    -0.253701
     1.750000     2.566830     4.270200     1.750000     3.412620     1.750000    -0.256672
     1.750000     2.933090     4.349830     2.100000     2.933090     1.750000    -0.268861
     1.750000     2.933090     4.645460     2.100000     3.476040     1.750000    -0.281071
     1.750000     2.933090     4.991060     2.100000     3.788460     2.100000    -0.258110
     1.750000     2.933090     4.645730     2.100000     3.785140     1.750000    -0.283498
     1.750000     2.933090     4.991370     2.100000     4.128650     2.100000    -0.259904
     1.750000     2.933090     4.350640     2.100000     3.838620     1.750000    -0.278989
     1.750000     2.933090     4.661340     2.100000     4.187490     2.100000    -0.255349
     1.750000     3.446460     4.194380     2.600000     2.677740     1.750000    -0.276701
     1.750000     3.446460     4.808450     2.600000     3.446460     1.750000    -0.295284
     1.750000     3.446460     5.109290     2.600000     3.692790     2.100000    -0.268351
     1.750000     3.446460     5.143690     2.600000     4.004380     1.750000    -0.301714
     1.750000     3.446460     5.487120     2.600000     4.315680     2.100000    -0.274340
     1.750000     3.446460     5.167980     2.600000     4.304350     1.750000    -0.302953
     1.750000     3.446460     5.514440     2.600000     4.649290     2.100000    -0.275489
     1.750000     3.446460     4.879080     2.600000     4.322880     1.750000    -0.300484
     1.750000     3.446460     5.189010     2.600000     4.669880     2.100000    -0.273205
     1.750000     3.446460     4.537870     2.600000     4.375980     2.100000    -0.266051
     1.750000     3.446460     3.505480     2.600000     3.531950     1.750000    -0.275388
     1.750000     2.100000     3.762190     2.100000     3.762190     1.750000    -0.253049
     1.750000     2.600000     4.333000     2.600000     3.963890     1.750000    -0.285552
     1.750000     2.600000     4.681120     2.600000     4.270580     2.100000    -0.260660
     1.750000     2.600000     4.288550     2.600000     4.288550     1.750000    -0.289284
     1.750000     2.600000     4.631740     2.600000     4.631740     2.100000    -0.263996
     2.100000     4.700000     6.602680     2.600000     4.541700     2.100000    -0.251827
     2.100000     4.396560     6.381170     2.600000     4.396560     2.100000    -0.251412
     2.100000     4.396560     6.486380     2.600000     4.676010     2.100000    -0.251689
     2.100000     4.396560     6.206000     2.600000     4.640550     2.100000    -0.250695
     1.000000     4.400000     5.480100     3.400000     4.500180     1.400000    -0.296495
     1.000000     4.400000     5.771650     3.400000     4.799700     1.750000    -0.280937
     1.000000     4.400000     6.069380     3.400000     5.105630     2.100000    -0.250884
     1.000000     4.400000     4.617360     3.400000     3.676960     1.400000    -0.293445
     1.000000     4.400000     4.735240     3.400000     3.823940     1.750000    -0.277550
     1.000000     4.103930     4.448840     3.400000     3.539780     1.400000    -0.291556
     1.000000     4.103930     4.598070     3.400000     3.658560     1.750000    -0.275631
     1.000000     4.103930     5.253320     3.400000     4.417600     1.400000    -0.296160
     1.000000     4.103930     5.558660     3.400000     4.702810     1.750000    -0.280355
     1.000000     4.103930     5.868990     3.400000     4.996270     2.100000    -0.250445
     1.000000     4.103930     5.500050     3.400000     4.794620     1.400000    -0.296769
     1.000000     4.103930     5.849370     3.400000     5.143730     1.750000    -0.280973
     1.000000     4.103930     6.198770     3.400000     5.492960     2.100000    -0.251142
     1.000000     4.103930     5.118340     3.400000     4.573310     1.400000    -0.295483
     1.000000     4.103930     5.398950     3.400000     4.885330     1.750000    -0.279926
     1.000000     4.103930     4.220460     3.400000     3.809190     1.400000    -0.291528
     1.000000     4.103930     4.320570     3.400000     3.982450     1.750000    -0.275191
     1.000000     3.400000     3.862640     3.400000     3.481380     1.400000    -0.283935
     1.000000     3.400000     4.046290     3.400000     3.587830     1.750000    -0.267906
     1.000000     3.400000     4.600910     3.400000     4.380470     1.400000    -0.292170
     1.000000     3.400000     4.917620     3.400000     4.659200     1.750000    -0.276829
     1.000000     3.400000     4.789210     3.400000     4.789210     1.400000    -0.294341
     1.000000     3.400000     5.137420     3.400000     5.137420     1.750000    -0.278835
     1.400000     4.800000     5.873970     3.400000     4.500180     1.400000    -0.346389
     1.400000     4.800000     6.162950     3.400000     4.799700     1.750000    -0.330878
     1.400000     4.800000     6.457960     3.400000     5.105630     2.100000    -0.301228
     1.400000     4.800000     6.888350     3.400000     5.551720     2.600000    -0.257809
     1.400000     4.800000     5.000000     3.400000     3.676960     1.400000    -0.343972
     1.400000     4.800000     5.109060     3.400000     3.823940     1.750000    -0.327815
     1.400000     4.800000     5.239270     3.400000     3.996250     2.100000    -0.298358
     1.400000     4.800000     5.458940     3.400000     4.280190     2.600000    -0.254964
     1.400000     4.381770     4.748250     3.400000     3.483400     1.400000    -0.341102
     1.400000     4.381770     4.898450     3.400000     3.590280     1.750000    -0.325201
     1.400000     4.381770     5.068420     3.400000     3.727080     2.100000    -0.295555
     1.400000     4.381770     5.546160     3.400000     4.381770     1.400000    -0.345682
     1.400000     4.381770     5.853410     3.400000     4.660730     1.750000    -0.330224
     1.400000     4.381770     6.165210     3.400000     4.948730     2.100000    -0.300422
     1.400000     4.381770     6.617280     3.400000     5.372940     2.600000    -0.257286
     1.400000     4.381770     5.774980     3.400000     4.789420     1.400000    -0.346191
     1.400000     4.381770     6.123760     3.400000     5.137680     1.750000    -0.330910
     1.400000     4.381770     6.472680     3.400000     5.486150     2.100000    -0.301262
     1.400000     4.381770     6.971320     3.400000     5.984280     2.600000    -0.257976
     1.400000     4.381770     5.366550     3.400000     4.599990     1.400000    -0.345072
     1.400000     4.381770     5.640250     3.400000     4.916550     1.750000    -0.329694
     1.400000     4.381770     5.921980     3.400000     5.237360     2.100000    -0.300115
     1.400000     4.381770     6.336280     3.400000     5.701620     2.600000    -0.256449
     1.400000     4.381770     4.446800     3.400000     3.860820     1.400000    -0.341039
     1.400000     4.381770     4.531010     3.400000     4.044120     1.750000    -0.324515
     1.400000     4.381770     4.640160     3.400000     4.248400     2.100000    -0.294905
     1.400000     4.381770     4.835910     3.400000     4.570980     2.600000    -0.251697
     1.400000     3.400000     3.934460     3.400000     3.400000     1.400000    -0.329805
     1.400000     3.400000     4.131890     3.400000     3.488910     1.750000    -0.313317
     1.400000     3.400000     4.348560     3.400000     3.609710     2.100000    -0.283784
     1.400000     3.400000     4.636090     3.400000     4.326840     1.400000    -0.339941
     1.400000     3.400000     4.958750     3.400000     4.596130     1.750000    -0.325208
     1.400000     3.400000     5.284890     3.400000     4.875680     2.100000    -0.296163
     1.400000     3.400000     5.755670     3.400000     5.289610     2.600000    -0.252909
     1.400000     3.400000     4.778710     3.400000     4.778710     1.400000    -0.342744
     1.400000     3.400000     5.125190     3.400000     5.125190     1.750000    -0.327666
     1.400000     3.400000     5.472120     3.400000     5.472120     2.100000    -0.298438
     1.400000     3.400000     5.968350     3.400000     5.968350     2.600000    -0.255118
     1.750000     5.150000     6.506200     3.400000     4.799700     1.750000    -0.315178
     1.750000     5.150000     6.799060     3.400000     5.105630     2.100000    -0.285513
     1.750000     5.150000     5.439210     3.400000     3.823940     1.750000    -0.312678
     1.750000     5.150000     5.561700     3.400000     3.996250     2.100000    -0.282946
     1.750000     4.622260     5.156870     3.400000     3.529450     1.750000    -0.309642
     1.750000     4.622260     5.326720     3.400000     3.656690     2.100000    -0.280351
     1.750000     4.622260     6.107020     3.400000     4.622260     1.750000    -0.314771
     1.750000     4.622260     6.420020     3.400000     4.905240     2.100000    -0.285031
     1.750000     4.622260     6.360830     3.400000     5.130670     1.750000    -0.314814
     1.750000     4.622260     6.709260     3.400000     5.478280     2.100000    -0.285864
     1.750000     4.622260     5.850910     3.400000     4.942450     1.750000    -0.313902
     1.750000     4.622260     6.127130     3.400000     5.266540     2.100000    -0.284382
     1.750000     4.622260     4.718300     3.400000     4.097320     1.750000    -0.309273
     1.750000     4.622260     4.814220     3.400000     4.309130     2.100000    -0.279155
     1.750000     3.400000     4.205350     3.400000     3.400000     1.750000    -0.294649
     1.750000     3.400000     4.432270     3.400000     3.506420     2.100000    -0.264831
     1.750000     3.400000     4.991910     3.400000     4.537410     1.750000    -0.307921
     1.750000     3.400000     5.322220     3.400000     4.809240     2.100000    -0.279026
     1.750000     3.400000     5.110940     3.400000     5.110940     1.750000    -0.310996
     1.750000     3.400000     5.456100     3.400000     5.456100     2.100000    -0.282008
     2.100000     5.500000     7.141020     3.400000     5.105630     2.100000    -0.256053
     2.100000     5.500000     5.887270     3.400000     3.996250     2.100000    -0.253782
     2.100000     4.859920     5.580960     3.400000     3.584920     2.100000    -0.250189
     2.100000     4.859920     6.670650     3.400000     4.859920     2.100000    -0.255648
     2.100000     4.859920     6.942680     3.400000     5.468580     2.100000    -0.256185
     2.100000     4.859920     6.331480     3.400000     5.294220     2.100000    -0.254866
     2.100000     3.400000     5.436170     3.400000     5.436170     2.100000    -0.251509
     1.000000     2.961660     3.851550     2.100000     2.893610     1.400000    -0.251096
     1.000000     2.961660     4.151130     2.100000     3.231950     1.400000    -0.260426
     1.000000     2.961660     4.229360     2.100000     3.380240     1.400000    -0.263036
     1.000000     2.961660     4.077450     2.100000     3.324420     1.400000    -0.259907
     1.000000     2.961660     3.712740     2.100000     3.069690     1.400000    -0.250014
     1.000000     2.961660     3.805840     2.100000     2.953470     1.400000    -0.250695
     1.000000     3.463010     3.815580     2.600000     2.848470     1.400000    -0.269041
     1.000000     3.463010     3.976520     2.600000     3.010770     1.750000    -0.253623
     1.000000     3.463010     4.320320     2.600000     3.366410     1.400000    -0.279532
     1.000000     3.463010     4.576670     2.600000     3.617790     1.750000    -0.264547
     1.000000     3.463010     4.637770     2.600000     3.721770     1.400000    -0.283593
     1.000000     3.463010     4.949800     2.600000     4.029510     1.750000    -0.269157
     1.000000     3.463010     4.725240     2.600000     3.872400     1.400000    -0.284904
     1.000000     3.463010     5.052160     2.600000     4.203190     1.750000    -0.270154
     1.000000     3.463010     4.571950     2.600000     3.802340     1.400000    -0.283421
     1.000000     3.463010     4.872660     2.600000     4.122470     1.750000    -0.268933
     1.000000     3.463010     4.197050     2.600000     3.518910     1.400000    -0.278843
     1.000000     3.463010     4.430960     2.600000     3.794850     1.750000    -0.264038
     1.000000     3.463010     3.653250     2.600000     3.053890     1.400000    -0.268911
     1.000000     3.463010     3.781160     2.600000     3.252730     1.750000    -0.253038
     1.000000     3.463010     3.463010     2.600000     2.600000     1.510480    -0.256582
     1.000000     3.463010     4.279630     2.600000     3.418000     1.400000    -0.279374
     1.000000     3.463010     4.528620     2.600000     3.677760     1.750000    -0.264439
     1.000000     3.463010     4.008380     2.600000     3.291610     1.400000    -0.275541
     1.000000     3.463010     4.206940     2.600000     3.530700     1.750000    -0.260356
     1.000000     3.463010     3.735300     2.600000     2.952960     1.400000    -0.269058
     1.000000     3.463010     3.880070     2.600000     3.134090     1.750000    -0.253585
     1.000000     2.591310     3.856180     2.100000     3.369390     1.400000    -0.252644
     1.000000     3.094140     3.547350     2.600000     2.769480     1.400000    -0.258032
     1.000000     3.094140     4.019640     2.600000     3.304390     1.400000    -0.272656
     1.000000     3.094140     4.291390     2.600000     3.545590     1.750000    -0.258990
     1.000000     3.094140     4.300280     2.600000     3.684930     1.400000    -0.278705
     1.000000     3.094140     4.618940     2.600000     3.986970     1.750000    -0.265021
     1.000000     3.094140     4.354620     2.600000     3.864790     1.400000    -0.280676
     1.000000     3.094140     4.682150     2.600000     4.194430     1.750000    -0.266635
     1.000000     3.094140     4.176410     2.600000     3.824750     1.400000    -0.278281
     1.000000     3.094140     4.474610     2.600000     4.148300     1.750000    -0.264388
     1.000000     3.094140     3.786670     2.600000     3.568980     1.400000    -0.272041
     1.000000     3.094140     4.017800     2.600000     3.852860     1.750000    -0.257880
     1.000000     3.094140     3.237850     2.600000     3.125700     1.400000    -0.257983
     1.000000     3.094140     3.768720     2.600000     3.160630     1.400000    -0.267664
     1.000000     3.094140     3.996640     2.600000     3.377790     1.750000    -0.253761
     1.000000     3.094140     3.865890     2.600000     3.483020     1.400000    -0.272530
     1.000000     3.094140     4.111020     2.600000     3.753230     1.750000    -0.258242
     1.000000     3.094140     3.396130     2.600000     2.952960     1.400000    -0.258358
     1.000000     2.600000     3.586570     2.600000     3.280780     1.400000    -0.258397
     1.000000     2.600000     3.832010     2.600000     3.670400     1.400000    -0.268053
     1.000000     2.600000     4.156670     2.600000     3.970180     1.750000    -0.255662
     1.000000     2.600000     3.860960     2.600000     3.860960     1.400000    -0.270912
     1.000000     2.600000     4.190020     2.600000     4.190020     1.750000    -0.258543
     1.000000     2.600000     3.506000     2.600000     3.506000     1.400000    -0.261327
     1.400000     2.947930     3.864480     1.750000     2.523170     1.400000    -0.273055
     1.400000     2.947930     4.136140     1.750000     2.793720     1.750000    -0.266310
     1.400000     2.947930     4.149880     1.750000     2.863370     1.400000    -0.286237
     1.400000     2.947930     4.468420     1.750000     3.177340     1.750000    -0.278778
     1.400000     2.947930     4.791360     1.750000     3.498160     2.100000    -0.256596
     1.400000     2.947930     4.212850     1.750000     3.029900     1.400000    -0.289141
     1.400000     2.947930     4.541480     1.750000     3.364850     1.750000    -0.281211
     1.400000     2.947930     4.873090     1.750000     3.702590     2.100000    -0.258813
     1.400000     2.947930     4.046330     1.750000     3.007920     1.400000    -0.284524
     1.400000     2.947930     4.348100     1.750000     3.340120     1.750000    -0.276672
     1.400000     2.947930     4.656610     1.750000     3.675620     2.100000    -0.254610
     1.400000     2.947930     3.669360     1.750000     2.799360     1.400000    -0.270499
     1.400000     2.947930     3.907700     1.750000     3.105220     1.750000    -0.262627
     1.400000     2.947930     3.800550     1.750000     2.618470     1.400000    -0.272457
     1.400000     2.947930     4.061420     1.750000     2.901270     1.750000    -0.264997
     1.400000     2.947930     3.503550     1.750000     2.578200     1.400000    -0.260941
     1.400000     2.947930     3.712620     1.750000     2.855830     1.750000    -0.252878
     1.400000     3.301670     3.702660     2.100000     2.349740     1.400000    -0.287678
     1.400000     3.301670     3.876130     2.100000     2.532120     1.750000    -0.274861
     1.400000     3.301670     4.192430     2.100000     2.854030     1.400000    -0.306666
     1.400000     3.301670     4.456220     2.100000     3.113180     1.750000    -0.295195
     1.400000     3.301670     4.731200     2.100000     3.388690     2.100000    -0.269693
     1.400000     3.301670     4.492190     2.100000     3.208420     1.400000    -0.314772
     1.400000     3.301670     4.807490     2.100000     3.518160     1.750000    -0.303066
     1.400000     3.301670     5.127300     2.100000     3.834830     2.100000    -0.276990
     1.400000     3.301670     4.563110     2.100000     3.375060     1.400000    -0.316486
     1.400000     3.301670     4.890270     2.100000     3.707930     1.750000    -0.304779
     1.400000     3.301670     5.220390     2.100000     4.043700     2.100000    -0.278786
     1.400000     3.301670     4.396710     2.100000     3.338060     1.400000    -0.313730
     1.400000     3.301670     4.695860     2.100000     3.665830     1.750000    -0.301888
     1.400000     3.301670     5.001610     2.100000     3.997370     2.100000    -0.276029
     1.400000     3.301670     4.013290     2.100000     3.100890     1.400000    -0.305060
     1.400000     3.301670     4.245040     2.100000     3.395490     1.750000    -0.292834
     1.400000     3.301670     4.492130     2.100000     3.699760     2.100000    -0.267402
     1.400000     3.301670     3.465880     2.100000     2.686770     1.400000    -0.287023
     1.400000     3.301670     3.592020     2.100000     2.921200     1.750000    -0.272755
     1.400000     3.301670     2.854030     2.100000     2.143480     1.400000    -0.254024
     1.400000     3.301670     3.314700     2.100000     2.120430     1.400000    -0.269934
     1.400000     3.301670     3.409000     2.100000     2.265010     1.750000    -0.254528
     1.400000     3.301670     4.133580     2.100000     2.938620     1.400000    -0.306405
     1.400000     3.301670     4.386960     2.100000     3.210040     1.750000    -0.294450
     1.400000     3.301670     4.652880     2.100000     3.495460     2.100000    -0.269031
     1.400000     3.301670     3.838590     2.100000     2.871200     1.400000    -0.299278
     1.400000     3.301670     4.038040     2.100000     3.132850     1.750000    -0.286693
     1.400000     3.301670     4.256960     2.100000     3.410380     2.100000    -0.261093
     1.400000     3.301670     3.586220     2.100000     2.523890     1.400000    -0.287664
     1.400000     3.301670     3.736780     2.100000     2.733590     1.750000    -0.274422
     1.400000     3.804900     4.157640     2.600000     2.805580     1.400000    -0.322067
     1.400000     3.804900     4.312850     2.600000     2.960000     1.750000    -0.306762
     1.400000     3.804900     4.490030     2.600000     3.145940     2.100000    -0.278172
     1.400000     3.804900     4.665400     2.600000     3.332960     1.400000    -0.331100
     1.400000     3.804900     4.919410     2.600000     3.578870     1.750000    -0.316708
     1.400000     3.804900     5.184620     2.600000     3.840960     2.100000    -0.288285
     1.400000     3.804900     4.981770     2.600000     3.702150     1.400000    -0.334818
     1.400000     3.804900     5.292990     2.600000     4.006860     1.750000    -0.320414
     1.400000     3.804900     5.608780     2.600000     4.318440     2.100000    -0.291765
     1.400000     3.804900     6.066430     2.600000     4.772800     2.600000    -0.250113
     1.400000     3.804900     5.062070     2.600000     3.868760     1.400000    -0.335644
     1.400000     3.804900     5.387380     2.600000     4.199000     1.750000    -0.321368
     1.400000     3.804900     5.715610     2.600000     4.532210     2.100000    -0.292821
     1.400000     3.804900     6.188650     2.600000     5.012190     2.600000    -0.250486
     1.400000     3.804900     4.895850     2.600000     3.815060     1.400000    -0.334427
     1.400000     3.804900     5.191810     2.600000     4.137130     1.750000    -0.319672
     1.400000     3.804900     5.494120     2.600000     4.463400     2.100000    -0.291261
     1.400000     3.804900     4.505100     2.600000     3.546640     1.400000    -0.330324
     1.400000     3.804900     4.728960     2.600000     3.826980     1.750000    -0.315317
     1.400000     3.804900     4.967420     2.600000     4.118000     2.100000    -0.287198
     1.400000     3.804900     3.948240     2.600000     3.093330     1.400000    -0.321730
     1.400000     3.804900     4.059420     2.600000     3.299000     1.750000    -0.305635
     1.400000     3.804900     4.196930     2.600000     3.527470     2.100000    -0.276977
     1.400000     3.804900     3.300660     2.600000     2.600000     1.706170    -0.288942
     1.400000     3.804900     3.298330     2.600000     2.734900     2.056170    -0.257112
     1.400000     3.804900     3.804900     2.600000     2.600000     1.591280    -0.306966
     1.400000     3.804900     3.893160     2.600000     2.727530     1.941280    -0.280728
     1.400000     3.804900     4.010130     2.600000     2.892040     2.291280    -0.250392
     1.400000     3.804900     4.612580     2.600000     3.405680     1.400000    -0.330925
     1.400000     3.804900     4.856760     2.600000     3.663440     1.750000    -0.316337
     1.400000     3.804900     5.113240     2.600000     3.935470     2.100000    -0.287822
     1.400000     3.804900     4.320310     2.600000     3.308740     1.400000    -0.327686
     1.400000     3.804900     4.508270     2.600000     3.550670     1.750000    -0.312496
     1.400000     3.804900     4.714760     2.600000     3.809420     2.100000    -0.284000
     1.400000     3.804900     3.405680     2.600000     2.600000     2.056170    -0.257755
     1.400000     3.804900     4.054290     2.600000     2.952960     1.400000    -0.321907
     1.400000     3.804900     4.188050     2.600000     3.134090     1.750000    -0.306396
     1.400000     3.804900     4.345950     2.600000     3.342150     2.100000    -0.277732
     1.400000     2.418840     3.669230     1.750000     2.781180     1.400000    -0.260923
     1.400000     2.418840     3.997360     1.750000     3.084730     1.750000    -0.259212
     1.400000     2.418840     3.672740     1.750000     3.000550     1.400000    -0.265670
     1.400000     2.418840     4.001380     1.750000     3.331810     1.750000    -0.262973
     1.400000     2.418840     3.463130     1.750000     3.033970     1.400000    -0.258101
     1.400000     2.418840     3.760500     1.750000     3.369430     1.750000    -0.255776
     1.400000     2.777560     3.338390     2.100000     2.213590     1.400000    -0.256159
     1.400000     2.777560     3.772840     2.100000     2.744930     1.400000    -0.286944
     1.400000     2.777560     4.059150     2.100000     2.988030     1.750000    -0.278525
     1.400000     2.777560     4.354770     2.100000     3.250690     2.100000    -0.256133
     1.400000     2.777560     4.012740     2.100000     3.139630     1.400000    -0.299623
     1.400000     2.777560     4.337210     2.100000     3.439700     1.750000    -0.291053
     1.400000     2.777560     4.665370     2.100000     3.748450     2.100000    -0.267607
     1.400000     2.777560     4.030840     2.100000     3.353420     1.400000    -0.303120
     1.400000     2.777560     4.358140     2.100000     3.683310     1.750000    -0.294268
     1.400000     2.777560     4.688720     2.100000     4.016610     2.100000    -0.269886
     1.400000     2.777560     3.825190     2.100000     3.365600     1.400000    -0.298595
     1.400000     2.777560     4.119940     2.100000     3.697170     1.750000    -0.289332
     1.400000     2.777560     4.422750     2.100000     4.031860     2.100000    -0.265345
     1.400000     2.777560     3.418800     2.100000     3.175020     1.400000    -0.284646
     1.400000     2.777560     3.646100     2.100000     3.480080     1.750000    -0.275313
     1.400000     2.777560     3.891640     2.100000     3.792910     2.100000    -0.252402
     1.400000     2.777560     2.864410     2.100000     2.800000     1.400000    -0.255069
     1.400000     2.777560     3.508170     2.100000     2.653760     1.400000    -0.276573
     1.400000     2.777560     3.750710     2.100000     2.883230     1.750000    -0.267834
     1.400000     2.777560     3.540750     2.100000     3.038430     1.400000    -0.285769
     1.400000     2.777560     3.788790     2.100000     3.324170     1.750000    -0.276672
     1.400000     2.777560     4.051910     2.100000     3.621200     2.100000    -0.253809
     1.400000     2.777560     3.110440     2.100000     2.523890     1.400000    -0.257819
     1.400000     3.284760     3.770900     2.600000     2.692580     1.400000    -0.307174
     1.400000     3.284760     3.961020     2.600000     2.825770     1.750000    -0.292371
     1.400000     3.284760     4.171890     2.600000     2.994160     2.100000    -0.265371
     1.400000     3.284760     4.235200     2.600000     3.242280     1.400000    -0.322575
     1.400000     3.284760     4.509570     2.600000     3.473180     1.750000    -0.308646
     1.400000     3.284760     4.793800     2.600000     3.722710     2.100000    -0.281423
     1.400000     3.284760     4.501580     2.600000     3.646160     1.400000    -0.328499
     1.400000     3.284760     4.821340     2.600000     3.942160     1.750000    -0.315028
     1.400000     3.284760     5.145040     2.600000     4.246380     2.100000    -0.287286
     1.400000     3.284760     4.536300     2.600000     3.853690     1.400000    -0.330158
     1.400000     3.284760     4.861850     2.600000     4.181640     1.750000    -0.316591
     1.400000     3.284760     5.190580     2.600000     4.512910     2.100000    -0.288695
     1.400000     3.284760     4.626860     2.600000     4.168710     1.750000    -0.314338
     1.400000     3.284760     4.926100     2.600000     4.498530     2.100000    -0.286379
     1.400000     3.284760     3.923110     2.600000     3.613660     1.400000    -0.321489
     1.400000     3.284760     4.141680     2.600000     3.904570     1.750000    -0.307383
     1.400000     3.284760     4.377360     2.600000     4.204490     2.100000    -0.279892
     1.400000     3.284760     3.358520     2.600000     3.192180     1.400000    -0.307131
     1.400000     3.284760     3.466220     2.600000     3.414670     1.750000    -0.291805
     1.400000     3.284760     3.604810     2.600000     3.657180     2.100000    -0.263488
     1.400000     3.284760     2.749990     2.600000     2.632040     1.400000    -0.281592
     1.400000     3.284760     2.714440     2.600000     2.753550     1.750000    -0.259329
     1.400000     3.284760     3.967940     2.600000     3.123270     1.400000    -0.316819
     1.400000     3.284760     4.194730     2.600000     3.334070     1.750000    -0.303590
     1.400000     3.284760     4.437560     2.600000     3.566830     2.100000    -0.275920
     1.400000     3.284760     4.029820     2.600000     3.494250     1.400000    -0.321641
     1.400000     3.284760     4.267840     2.600000     3.766260     1.750000    -0.307629
     1.400000     3.284760     4.520440     2.600000     4.050270     2.100000    -0.280575
     1.400000     3.284760     3.123270     2.600000     2.772210     1.400000    -0.294979
     1.400000     3.284760     3.179410     2.600000     2.920440     1.750000    -0.276932
     1.400000     3.284760     3.570670     2.600000     2.952960     1.400000    -0.308000
     1.400000     3.284760     3.721850     2.600000     3.134090     1.750000    -0.293172
     1.400000     3.284760     3.898680     2.600000     3.342160     2.100000    -0.265482
     1.400000     2.100000     3.372910     2.100000     3.111120     1.400000    -0.264780
     1.400000     2.100000     3.705480     2.100000     3.407180     1.750000    -0.262324
     1.400000     2.100000     3.670660     2.100000     3.670660     1.750000    -0.268316
     1.400000     2.600000     3.456050     2.600000     2.775020     1.750000    -0.262827
     1.400000     2.600000     3.636750     2.600000     3.207170     1.400000    -0.301110
     1.400000     2.600000     3.931270     2.600000     3.432190     1.750000    -0.289951
     1.400000     2.600000     4.234250     2.600000     3.676810     2.100000    -0.265236
     1.400000     2.600000     3.850600     2.600000     3.623490     1.400000    -0.312554
     1.400000     2.600000     4.178080     2.600000     3.915940     1.750000    -0.301165
     1.400000     2.600000     4.508950     2.600000     4.217170     2.100000    -0.275562
     1.400000     2.600000     3.846020     2.600000     3.846020     1.400000    -0.315731
     1.400000     2.600000     4.172810     2.600000     4.172810     1.750000    -0.304708
     1.400000     2.600000     4.503090     2.600000     4.503090     2.100000    -0.278774
     1.400000     2.600000     3.114480     2.600000     2.782090     1.400000    -0.277182
     1.400000     2.600000     3.323780     2.600000     2.932150     1.750000    -0.264211
     1.400000     2.600000     3.496510     2.600000     3.496510     1.400000    -0.304514
     1.400000     2.600000     3.768890     2.600000     3.768890     1.750000    -0.293438
     1.400000     2.600000     4.053200     2.600000     4.053200     2.100000    -0.268219
     1.400000     2.600000     2.952960     2.600000     2.952960     1.400000    -0.278049
     1.400000     2.600000     3.134090     2.600000     3.134090     1.750000    -0.265410
     1.750000     3.239650     4.423930     1.750000     2.746730     1.750000    -0.260746
     1.750000     3.239650     4.758890     1.750000     3.147990     1.750000    -0.271134
     1.750000     3.239650     4.825720     1.750000     3.355740     1.750000    -0.273020
     1.750000     3.239650     5.155680     1.750000     3.692650     2.100000    -0.251874
     1.750000     3.239650     4.617460     1.750000     3.352000     1.750000    -0.268677
     1.750000     3.239650     4.156230     1.750000     3.137100     1.750000    -0.255953
     1.750000     3.239650     4.336530     1.750000     2.882740     1.750000    -0.259499
     1.750000     3.596180     4.161860     2.100000     2.479190     1.750000    -0.266775
     1.750000     3.596180     4.749010     2.100000     3.071950     1.750000    -0.284578
     1.750000     3.596180     5.021180     2.100000     3.343240     2.100000    -0.260025
     1.750000     3.596180     5.101750     2.100000     3.492990     1.750000    -0.291515
     1.750000     3.596180     5.420510     2.100000     3.807120     2.100000    -0.266132
     1.750000     3.596180     5.178260     2.100000     3.701100     1.750000    -0.292705
     1.750000     3.596180     5.506880     2.100000     4.036180     2.100000    -0.267526
     1.750000     3.596180     4.970090     2.100000     3.677920     1.750000    -0.290073
     1.750000     3.596180     5.271680     2.100000     4.010680     2.100000    -0.265411
     1.750000     3.596180     4.500690     2.100000     3.425460     1.750000    -0.282137
     1.750000     3.596180     4.738770     2.100000     3.732760     2.100000    -0.257016
     1.750000     3.596180     3.830000     2.100000     2.966240     1.750000    -0.264476
     1.750000     3.596180     4.667710     2.100000     3.194130     1.750000    -0.284157
     1.750000     3.596180     4.928840     2.100000     3.477930     2.100000    -0.259170
     1.750000     3.596180     4.295950     2.100000     3.151620     1.750000    -0.276806
     1.750000     3.596180     4.504970     2.100000     3.431080     2.100000    -0.251751
     1.750000     3.596180     3.999370     2.100000     2.733590     1.750000    -0.266305
     1.750000     4.101870     4.605860     2.600000     2.914860     1.750000    -0.294040
     1.750000     4.101870     4.777730     2.600000     3.094940     2.100000    -0.265483
     1.750000     4.101870     5.217030     2.600000     3.543770     1.750000    -0.302901
     1.750000     4.101870     5.480040     2.600000     3.801700     2.100000    -0.274806
     1.750000     4.101870     5.590780     2.600000     3.985870     1.750000    -0.306124
     1.750000     4.101870     5.905770     2.600000     4.295060     2.100000    -0.278032
     1.750000     4.101870     5.678910     2.600000     4.194160     1.750000    -0.306771
     1.750000     4.101870     6.005830     2.600000     4.526830     2.100000    -0.278947
     1.750000     4.101870     5.470900     2.600000     4.148880     1.750000    -0.305134
     1.750000     4.101870     5.769480     2.600000     4.476480     2.100000    -0.277421
     1.750000     4.101870     4.992040     2.600000     3.854240     1.750000    -0.301588
     1.750000     4.101870     5.222500     2.600000     4.148400     2.100000    -0.273453
     1.750000     4.101870     4.308330     2.600000     3.338950     1.750000    -0.292714
     1.750000     4.101870     4.432160     2.600000     3.572300     2.100000    -0.263692
     1.750000     4.101870     3.543770     2.600000     2.662090     1.750000    -0.275925
     1.750000     4.101870     4.120950     2.600000     2.630000     1.750000    -0.284762
     1.750000     4.101870     4.212910     2.600000     2.771870     2.100000    -0.255498
     1.750000     4.101870     5.143130     2.600000     3.650190     1.750000    -0.302499
     1.750000     4.101870     5.395560     2.600000     3.920680     2.100000    -0.274377
     1.750000     4.101870     4.774250     2.600000     3.567650     1.750000    -0.298634
     1.750000     4.101870     4.972130     2.600000     3.828410     2.100000    -0.270741
     1.750000     4.101870     3.650190     2.600000     2.600000     2.000810    -0.253607
     1.750000     4.101870     4.459580     2.600000     3.134090     1.750000    -0.293465
     1.750000     4.101870     4.608180     2.600000     3.342150     2.100000    -0.265074
     1.750000     2.566830     4.133360     1.750000     3.302470     1.750000    -0.251174
     1.750000     2.933090     4.236630     2.100000     2.907160     1.750000    -0.265286
     1.750000     2.933090     4.500220     2.100000     3.386020     1.750000    -0.277185
     1.750000     2.933090     4.828740     2.100000     3.689340     2.100000    -0.254817
     1.750000     2.933090     4.500460     2.100000     3.661820     1.750000    -0.280031
     1.750000     2.933090     4.829020     2.100000     3.992960     2.100000    -0.256562
     1.750000     2.933090     4.237340     2.100000     3.709720     1.750000    -0.275242
     1.750000     2.933090     4.534370     2.100000     4.045670     2.100000    -0.252379
     1.750000     2.933090     3.737740     2.100000     3.525600     1.750000    -0.260795
     1.750000     2.933090     3.910660     2.100000     2.835090     1.750000    -0.254539
     1.750000     2.933090     3.911110     2.100000     3.332230     1.750000    -0.262614
     1.750000     3.446460     4.151800     2.600000     2.743290     1.750000    -0.276881
     1.750000     3.446460     4.363980     2.600000     2.900650     2.100000    -0.250383
     1.750000     3.446460     4.693100     2.600000     3.406270     1.750000    -0.293507
     1.750000     3.446460     4.978920     2.600000     3.647770     2.100000    -0.266361
     1.750000     3.446460     4.991450     2.600000     3.899070     1.750000    -0.299709
     1.750000     3.446460     5.315720     2.600000     4.198370     2.100000    -0.272404
     1.750000     3.446460     5.013130     2.600000     4.166680     1.750000    -0.301130
     1.750000     3.446460     5.340150     2.600000     4.496270     2.100000    -0.273965
     1.750000     3.446460     4.755810     2.600000     4.183260     1.750000    -0.298777
     1.750000     3.446460     5.049820     2.600000     4.514700     2.100000    -0.271706
     1.750000     3.446460     4.248160     2.600000     3.947280     1.750000    -0.291407
     1.750000     3.446460     4.473880     2.600000     4.252080     2.100000    -0.264484
     1.750000     3.446460     3.555800     2.600000     3.481290     1.750000    -0.275968
     1.750000     3.446460     4.362440     2.600000     3.293980     1.750000    -0.287907
     1.750000     3.446460     4.603960     2.600000     3.521840     2.100000    -0.261083
     1.750000     3.446460     4.401480     2.600000     3.775570     1.750000    -0.292415
     1.750000     3.446460     4.648330     2.600000     4.060650     2.100000    -0.264991
     1.750000     3.446460     3.293980     2.600000     2.965590     1.750000    -0.262020
     1.750000     3.446460     3.865310     2.600000     3.134090     1.750000    -0.277877
     1.750000     3.446460     4.035850     2.600000     3.342160     2.100000    -0.250376
     1.750000     2.600000     3.978690     2.600000     3.352040     1.750000    -0.269161
     1.750000     2.600000     4.192310     2.600000     3.863070     1.750000    -0.282109
     1.750000     2.600000     4.524780     2.600000     4.158240     2.100000    -0.257342
     1.750000     2.600000     4.480550     2.600000     4.480550     2.100000    -0.260874
     1.750000     2.600000     3.755940     2.600000     3.755940     1.750000    -0.272630
     2.100000     4.396560     6.200370     2.600000     4.270420     2.100000    -0.250393
     2.100000     4.396560     6.294190     2.600000     4.520200     2.100000    -0.251012
     1.000000     4.103930     4.416140     3.400000     3.580500     1.400000    -0.291298
     1.000000     4.103930     4.558480     3.400000     3.707760     1.750000    -0.275476
     1.000000     4.103930     5.002140     3.400000     4.214170     1.400000    -0.294914
     1.000000     4.103930     5.261050     3.400000     4.463350     1.750000    -0.279317
     1.000000     4.103930     5.186270     3.400000     4.496130     1.400000    -0.295792
     1.000000     4.103930     5.479390     3.400000     4.794940     1.750000    -0.280181
     1.000000     4.103930     5.778840     3.400000     5.100270     2.100000    -0.250051
     1.000000     4.103930     4.902190     3.400000     4.330030     1.400000    -0.294859
     1.000000     4.103930     5.142100     3.400000     4.599890     1.750000    -0.279092
     1.000000     4.103930     4.254670     3.400000     3.770940     1.400000    -0.291453
     1.000000     4.103930     4.362310     3.400000     3.936690     1.750000    -0.275266
     1.000000     4.103930     4.336160     3.400000     3.676960     1.400000    -0.291565
     1.000000     4.103930     4.461480     3.400000     3.823940     1.750000    -0.275589
     1.000000     3.400000     3.809190     3.400000     3.539780     1.400000    -0.284060
     1.000000     3.400000     3.982450     3.400000     3.658560     1.750000    -0.267964
     1.000000     3.400000     4.350660     3.400000     4.186670     1.400000    -0.290553
     1.000000     3.400000     4.624150     3.400000     4.430890     1.750000    -0.275208
     1.000000     3.400000     4.492050     3.400000     4.492050     1.400000    -0.292372
     1.000000     3.400000     4.790150     3.400000     4.790150     1.750000    -0.277048
     1.000000     3.400000     3.676950     3.400000     3.676950     1.400000    -0.284485
     1.000000     3.400000     3.823940     3.400000     3.823940     1.750000    -0.268297
     1.400000     4.381770     4.705310     3.400000     3.541190     1.400000    -0.341232
     1.400000     4.381770     4.846380     3.400000     3.660260     1.750000    -0.324795
     1.400000     4.381770     5.007990     3.400000     3.807890     2.100000    -0.295330
     1.400000     4.381770     5.270670     3.400000     4.062020     2.600000    -0.252419
     1.400000     4.381770     5.286600     3.400000     4.187640     1.400000    -0.344438
     1.400000     4.381770     5.545060     3.400000     4.432030     1.750000    -0.329047
     1.400000     4.381770     5.813110     3.400000     4.689830     2.100000    -0.299692
     1.400000     4.381770     6.210200     3.400000     5.077290     2.600000    -0.256277
     1.400000     4.381770     5.457090     3.400000     4.492210     1.400000    -0.345081
     1.400000     4.381770     5.747810     3.400000     4.790350     1.750000    -0.329784
     1.400000     4.381770     6.044820     3.400000     5.095090     2.100000    -0.300269
     1.400000     4.381770     6.478300     3.400000     5.539720     2.600000    -0.257093
     1.400000     4.381770     5.153850     3.400000     4.349970     1.400000    -0.344112
     1.400000     4.381770     5.386580     3.400000     4.623340     1.750000    -0.328696
     1.400000     4.381770     5.631460     3.400000     4.906460     2.100000    -0.299281
     1.400000     4.381770     5.999390     3.400000     5.324730     2.600000    -0.255998
     1.400000     4.381770     4.492210     3.400000     3.807890     1.400000    -0.340957
     1.400000     4.381770     4.586660     3.400000     3.980890     1.750000    -0.324499
     1.400000     4.381770     4.705310     3.400000     4.176120     2.100000    -0.294911
     1.400000     4.381770     4.913240     3.400000     4.487760     2.600000    -0.251917
     1.400000     4.381770     4.599990     3.400000     3.676960     1.400000    -0.341096
     1.400000     4.381770     4.718310     3.400000     3.823940     1.750000    -0.325141
     1.400000     4.381770     4.859010     3.400000     3.996250     2.100000    -0.295447
     1.400000     4.381770     5.095090     3.400000     4.280190     2.600000    -0.252259
     1.400000     3.400000     3.860820     3.400000     3.483400     1.400000    -0.330083
     1.400000     3.400000     4.044120     3.400000     3.590280     1.750000    -0.313851
     1.400000     3.400000     4.248400     3.400000     3.727080     2.100000    -0.284167
     1.400000     3.400000     4.376990     3.400000     4.147050     1.400000    -0.337858
     1.400000     3.400000     4.655110     3.400000     4.384070     1.750000    -0.322771
     1.400000     3.400000     4.942370     3.400000     4.635410     2.100000    -0.293739
     1.400000     3.400000     5.365690     3.400000     5.015040     2.600000    -0.251394
     1.400000     3.400000     4.484130     3.400000     4.484130     1.400000    -0.340301
     1.400000     3.400000     4.780880     3.400000     4.780880     1.750000    -0.325307
     1.400000     3.400000     5.084400     3.400000     5.084400     2.100000    -0.296019
     1.400000     3.400000     5.527550     3.400000     5.527550     2.600000    -0.253387
     1.400000     3.400000     3.676960     3.400000     3.676960     1.400000    -0.330767
     1.400000     3.400000     3.823940     3.400000     3.823940     1.750000    -0.314291
     1.400000     3.400000     3.996250     3.400000     3.996250     2.100000    -0.284672
     1.750000     4.622260     5.095000     3.400000     3.618180     1.750000    -0.309872
     1.750000     4.622260     5.254790     3.400000     3.759320     2.100000    -0.279744
     1.750000     4.622260     5.790230     3.400000     4.403450     1.750000    -0.313244
     1.750000     4.622260     6.057560     3.400000     4.657410     2.100000    -0.284144
     1.750000     4.622260     5.980330     3.400000     4.785040     1.750000    -0.313831
     1.750000     4.622260     6.275290     3.400000     5.089100     2.100000    -0.284830
     1.750000     4.622260     5.600110     3.400000     4.642830     1.750000    -0.312840
     1.750000     4.622260     5.839130     3.400000     4.928500     2.100000    -0.283793
     1.750000     4.622260     4.785040     3.400000     4.019170     1.750000    -0.308811
     1.750000     4.622260     4.892630     3.400000     4.219890     2.100000    -0.279314
     1.750000     4.622260     4.942450     3.400000     3.823940     1.750000    -0.309208
     1.750000     4.622260     5.076940     3.400000     3.996250     2.100000    -0.279752
     1.750000     3.400000     4.097320     3.400000     3.529450     1.750000    -0.294876
     1.750000     3.400000     4.309130     3.400000     3.656690     2.100000    -0.265372
     1.750000     3.400000     4.680100     3.400000     4.340600     1.750000    -0.304856
     1.750000     3.400000     4.970610     3.400000     4.586070     2.100000    -0.276601
     1.750000     3.400000     4.770080     3.400000     4.770080     1.750000    -0.308186
     1.750000     3.400000     5.072220     3.400000     5.072220     2.100000    -0.279276
     1.750000     3.400000     3.823940     3.400000     3.823940     1.750000    -0.295393
     1.750000     3.400000     3.996250     3.400000     3.996250     2.100000    -0.266356
     2.100000     4.859920     5.498530     3.400000     3.710120     2.100000    -0.250282
     2.100000     4.859920     6.298730     3.400000     4.623690     2.100000    -0.254618
     2.100000     4.859920     6.503280     3.400000     5.081710     2.100000    -0.255240
     2.100000     4.859920     6.046130     3.400000     4.949430     2.100000    -0.254098
     2.100000     4.859920     5.081710     3.400000     4.263220     2.100000    -0.250239
     2.100000     4.859920     5.294220     3.400000     3.996250     2.100000    -0.250480
     1.200000     3.137870     5.425670     2.300000     4.580220     2.300000    -0.256823
     1.200000     4.844580     4.923620     4.000000     4.375840     1.400000    -0.337232
     1.200000     4.844580     5.177680     4.000000     4.820960     2.300000    -0.273117
     1.400000     5.400000     5.869410     4.000000     4.614110     2.300000    -0.284185
     1.400000     3.979740     4.051220     3.000000     3.513680     1.400000    -0.332625
     1.400000     2.300000     4.545120     2.300000     4.545120     2.300000    -0.252182
     1.925000     4.249510     5.626980     2.600000     3.781650     2.100000    -0.261821
     1.750000     3.596180     5.175800     2.100000     3.625300     1.750000    -0.292672
     1.000000     3.121010     3.121010     3.121010     3.121010     1.401000    -0.267200
     1.000000     4.091540     4.091540     4.091540     4.091540     1.401000    -0.294734
     1.401000     4.120850     4.120850     4.120850     4.120850     1.401000    -0.343545
     1.000000     5.073530     5.073530     5.073530     5.073530     1.401000    -0.298839
     1.401000     5.097200     5.097200     5.097200     5.097200     1.401000    -0.348563
     1.000000     3.569410     3.569410     2.596290     2.596290     1.401000    -0.264032
     1.000000     4.554200     4.554200     3.569410     3.569410     1.401000    -0.294486
     1.000000     4.328480     5.722390     4.328480     5.722390     1.401000    -0.298908
     1.000000     5.544430     5.544430     4.554200     4.554200     1.401000    -0.298999
     1.401000     4.356190     5.743380     4.356190     5.743380     1.401000    -0.348739
     1.000000     3.231280     3.006690     3.006690     3.231280     1.401000    -0.266211
     1.000000     4.176270     4.005020     4.005020     4.176270     1.401000    -0.294532
     1.000000     5.142100     5.004020     5.004020     5.142100     1.401000    -0.298796
     1.401000     5.192570     5.000000     5.000000     5.192570     1.401000    -0.348491
     1.000000     2.353230     3.734130     2.353230     3.734130     1.401000    -0.259595
     1.000000     2.843800     4.230150     2.843800     4.230150     1.401000    -0.283479
     1.000000     3.604260     3.604260     3.604260     3.604260     1.401000    -0.286722
     1.000000     4.060870     4.060870     3.080700     3.080700     1.401000    -0.285569
     1.000000     3.700160     3.505740     3.505740     3.700160     1.401000    -0.286284
     1.000000     3.299500     4.700500     2.299500     3.700500     1.401000    -0.278479
     1.000000     3.337170     4.727020     3.337170     4.727020     1.401000    -0.293597
     1.000000     3.799500     5.200500     2.799500     4.200500     1.401000    -0.291516
     1.000000     4.581560     4.581560     4.581560     4.581560     1.401000    -0.297786
     1.000000     3.832260     5.224480     3.832260     5.224480     1.401000    -0.297547
     1.000000     4.299500     5.700500     3.299500     4.700500     1.401000    -0.296674
     1.000000     4.657380     4.504460     4.504460     4.657380     1.401000    -0.297694
     1.000000     5.048830     5.048830     4.060870     4.060870     1.401000    -0.297870
     1.000000     4.799500     6.200500     3.799500     5.200500     1.401000    -0.298547
     1.401000     4.607750     4.607750     4.607750     4.607750     1.401000    -0.347202
     1.401000     4.713050     4.500000     4.500000     4.713050     1.401000    -0.347050
     1.401000     3.863530     5.247470     3.863530     5.247470     1.401000    -0.347135
     1.401000     4.500000     5.901000     3.099000     4.500000     1.401000    -0.345379
     1.401000     3.769990     3.500000     3.500000     3.769990     1.401000    -0.333730
     1.401000     3.637500     3.637500     3.637500     3.637500     1.401000    -0.334466
     1.401000     3.159340     3.159340     3.159340     3.159340     1.401000    -0.313367
     1.401000     3.500000     4.901000     2.099000     3.500000     1.401000    -0.322638
     1.401000     3.311010     3.000000     3.000000     3.311010     1.401000    -0.311653
     1.401000     2.403830     3.766220     2.403830     3.766220     1.401000    -0.307462
     1.401000     3.000000     4.401000     1.599000     3.000000     1.401000    -0.283058
     1.401000     4.000000     5.401000     2.599000     4.000000     1.401000    -0.338732
     1.401000     4.238250     4.000000     4.000000     4.238250     1.401000    -0.343213
     1.401000     5.000000     6.401000     3.599000     5.000000     1.401000    -0.347985
     1.401000     3.373040     4.752410     3.373040     4.752410     1.401000    -0.342733
     1.401000     3.878650     3.878650     3.878650     3.878650     1.401000    -0.339987
     1.000000     3.847490     3.847490     3.847490     3.847490     1.401000    -0.291643
     1.401000     4.003160     3.750000     3.750000     4.003160     1.401000    -0.339495
     1.000000     3.937470     3.755360     3.755360     3.937470     1.401000    -0.291346
     1.401000     2.885810     4.258510     2.885810     4.258510     1.401000    -0.331935
     1.500000     3.000000     4.468130     3.000000     4.468130     1.500000    -0.331559
     1.417290     7.070990     8.055450     6.255000     7.070990     1.417290    -0.349018
     1.449000     4.254360     4.000000     4.000000     4.254360     1.449000    -0.341903
     1.449000     3.170140     3.170140     3.170140     3.170140     1.449000    -0.311090
     1.449000     3.331610     3.000000     3.000000     3.331610     1.449000    -0.309390
     1.449000     2.388050     3.794310     2.388050     3.794310     1.449000    -0.305228
